Mn4 B4                                  
   1.00000000000000     
     2.8808241092983393    0.0000000000000000    0.0000000000000000
     0.0000000000000000    4.1427621872304252    0.0000000000000000
     0.0000000000000000    0.0000000000000000    5.6302003540887284
   Mn   B 
     4     4
Direct
  0.7500000000000000  0.6206000859261784  0.3237135507195263
  0.7500000000000000  0.8793999140738216  0.8237135507195261
  0.2500000000000000  0.3793847044088491  0.6762792064435781
  0.2500000000000000  0.1206152955911510  0.1762792064435779
  0.2500000000000000  0.8944306459315007  0.5322378310314317
  0.7500000000000000  0.1055699155587263  0.4677694118054638
  0.7500000000000000  0.3944300844412737  0.9677694118054634
  0.2500000000000000  0.6055693540684993  0.0322378310314320
 
  0.00000000E+00  0.00000000E+00  0.00000000E+00
  0.00000000E+00  0.00000000E+00  0.00000000E+00
  0.00000000E+00  0.00000000E+00  0.00000000E+00
  0.00000000E+00  0.00000000E+00  0.00000000E+00
  0.00000000E+00  0.00000000E+00  0.00000000E+00
  0.00000000E+00  0.00000000E+00  0.00000000E+00
  0.00000000E+00  0.00000000E+00  0.00000000E+00
  0.00000000E+00  0.00000000E+00  0.00000000E+00
