Co2 str #: 13
1.000
-1.245908300  2.157976400  0.000000000
0.000000000  0.000000000  12.046793400
1.245908700  2.157976400  0.000000000
Po Co
3   3   
direct
0.666665996   0.249999988   0.666666986
0.666665996   0.583333321   0.666666986
0.333333987   0.416666671   0.333332989
0.666665996   0.916666654   0.666666986
0.333333987   0.083333337   0.333332989
0.333333987   0.750000004   0.333332989
