Eu4 O4                                  
   1.00000000000000     
     3.5863939928811628    0.0000082475114808   -0.0000839623005214
     0.0001370713284649    6.2353211028433133    0.0011720858039840
    -1.7932576213876910   -1.0380721593221462    5.8647125231560713
   Eu   O 
     4     4
Direct
  0.2499601472685684  0.7497068347015146  0.4999113940497668
  0.5000398527314317  0.5002931652984854  0.0000886059502332
  0.0000459206619608  0.0002940191941508  0.0000898094028310
  0.7499540793380390  0.2497059808058491  0.4999101905971690
  0.3750000000000000  0.1250000000000000  0.7500000000000000
  0.1249999756711589  0.3749989156801244  0.2500001365351651
  0.8750000000000000  0.6250000000000000  0.7500000000000000
  0.6250000243288412  0.8750010843198757  0.2499998634648349
 
  0.00000000E+00  0.00000000E+00  0.00000000E+00
  0.00000000E+00  0.00000000E+00  0.00000000E+00
  0.00000000E+00  0.00000000E+00  0.00000000E+00
  0.00000000E+00  0.00000000E+00  0.00000000E+00
  0.00000000E+00  0.00000000E+00  0.00000000E+00
  0.00000000E+00  0.00000000E+00  0.00000000E+00
  0.00000000E+00  0.00000000E+00  0.00000000E+00
  0.00000000E+00  0.00000000E+00  0.00000000E+00
