Co str #: 7
1.00
 -1.24609140  2.15829360  0.00000000
  0.00000000  0.00000000  12.06426000
  2.49218270  0.00000000  0.00000000
  Co Fe
  3 3
Dir
  0.66666690   0.08333333   0.33333297
  0.66666690   0.41666667   0.33333297
  0.33333296   0.58333334   0.66666703
  0.66666690   0.75000000   0.33333297
  0.33333296   0.25000001   0.66666703
  0.33333296   0.91666667   0.66666703
