Fe4 B2 str #: 8
1.00
-1.07490000 -1.81800000  3.57180000
1.07510000  1.81800000  3.57180000
-6.14920000  3.63600000  0.00000000
Fe B
4 2
direct
0.41711067   0.41709057   0.25001005
0.91711067   0.91709057   0.75001005
0.58291343   0.58288533   0.75001405
0.75001477   0.74998523   0.08290806
0.08291343   0.08288533   0.25001405
0.25001477   0.24998523   0.58290806
0.25000933   0.24999067   0.91711604
0.75000933   0.74999067   0.41711604
0.25001205   0.74998795   0.00001205
0.75001205   0.24998795   0.50001205
0.75001205   0.24998795   0.00001205
0.25001205   0.74998795   0.50001205
