pymatgen v2021.2.8.1 with grid density = 1453 / number of atoms
0
Gamma
10 10 6
