Eu1 O1                                  
   1.00000000000000     
     3.5926459999999998    0.0000000000000000    0.0000000000000000
     1.7963849999999999    3.1112790000000001    0.0000000000000000
     1.7963929999999999    1.0371170000000001    2.9333339999999999
   Eu   O 
     1     1
Direct
  0.0000000000000000  0.0000000000000000  0.0000000000000000
  0.5000000000000000  0.5000000000000000  0.5000000000000000
 
  0.00000000E+00  0.00000000E+00  0.00000000E+00
  0.00000000E+00  0.00000000E+00  0.00000000E+00
