Eu2 O2                                  
   1.00000000000000     
    -1.7921921089589983    3.1041938396928503   -0.0000155992224353
    -1.7925325511230297   -1.0349201445095260    5.8936614076846077
     1.7922743749823042    3.1041699072838567   -0.0002513898063900
   Eu   O 
     2     2
Direct
  0.5000000000000000  0.5000000000000000  0.0000000000000000
  0.0000000000000000 -0.0000000000000000  0.0000000000000000
  0.7499901303503691  0.7500289182104946  0.5000195186131254
  0.2500098696496310  0.2499710817895056  0.4999804813868746
 
  0.00000000E+00  0.00000000E+00  0.00000000E+00
  0.00000000E+00  0.00000000E+00  0.00000000E+00
  0.00000000E+00  0.00000000E+00  0.00000000E+00
  0.00000000E+00  0.00000000E+00  0.00000000E+00
