Ni1 str #: 10
1.000
2.476700100  0.000000000  0.000000000
1.238349900  3.574808660  4.044434200
0.000000000 -2.859846940  4.044434200
Ni
6
direct
0.000000000   0.000000000   0.000000000
0.333333333   0.333333333   0.166666667
0.666666667   0.666666667   0.333333333
0.000000000   0.000000000   0.500000000
0.333333333   0.333333333   0.666666667
0.666666667   0.666666667   0.833333333
