Eu4
1.0
3.822912 0.000000 0.000000
1.911456 3.378716 0.000000
0.000000 0.000000 12.838948
Po Eu
2 2 0
direct
0.849570 0.300860 0.625000 Eu,spin=-10
0.150430 0.699140 0.875000 Eu,spin=-10
0.849570 0.300860 0.125000 Eu,spin=10
0.150430 0.699140 0.375000 Eu,spin=10
