ALGO = Fast
EDIFF = 0.0001
EDIFFG = -0.01
ENCUT = 520
IBRION = 2
ICHARG = 2
ISIF = 4
ISMEAR = 0
ISPIN = 2
LASPH = True
LCHARG = False
LDAU = True
LDAUJ = 0 0
LDAUL = 2 0
LDAUPRINT = 1
LDAUTYPE = 2
LDAUU = 3.9 0
LMAXMIX = 4
LORBIT = 11
LREAL = Auto
LWAVE = False
MAGMOM = 4*5.0 4*0.0
NCORE = 4
NELM = 100
NSW = 99
POTIM = 0.3
PREC = Accurate
SIGMA = 0.01
SYMPREC = 1e-08
