Mn4 B4                                  
   1.00000000000000     
     2.8691715020300719    0.0000000000000000    0.0000000000000000
     0.0000000000000000    4.1393912448370944    0.0000000000000000
     0.0000000000000000    0.0000000000000000    5.6576699817164204
   Mn   B 
     4     4
Direct
  0.2500000000000000  0.3818329055088452  0.6776377977005982
  0.7500000000000000  0.6181670944911547  0.3223622022994017
  0.7500000000000000  0.8818329055088453  0.8223622022994018
  0.2500000000000000  0.1181670944911548  0.1776377977005983
  0.2500000000000000  0.8886685890089545  0.5336139258531395
  0.7500000000000000  0.1113314109910454  0.4663860741468605
  0.7500000000000000  0.3886685890089546  0.9663860741468605
  0.2500000000000000  0.6113314109910455  0.0336139258531395
 
  0.00000000E+00  0.00000000E+00  0.00000000E+00
  0.00000000E+00  0.00000000E+00  0.00000000E+00
  0.00000000E+00  0.00000000E+00  0.00000000E+00
  0.00000000E+00  0.00000000E+00  0.00000000E+00
  0.00000000E+00  0.00000000E+00  0.00000000E+00
  0.00000000E+00  0.00000000E+00  0.00000000E+00
  0.00000000E+00  0.00000000E+00  0.00000000E+00
  0.00000000E+00  0.00000000E+00  0.00000000E+00
