EuO PAW_PBE AFM
    SYSTEM = "EuO"

    NCORE = 4

Relaxation:
    IBRION  =    2
    EDIFF   =    1E-6
    ENCUT   =    500
    IBRION  =    2
    LORBIT  =    11

    LWAVE     =    .FALSE.             # WAVECAR off
    LCHARG    =    .FALSE.             # CHGCAR & CHG off

Smearing:
    ISMEAR    =    1
    SIGMA     =    0.1


Magnetism:
    ISPIN   =   2
    MAGMOM  =   7.0 7.0 -7.0 -7.0 0.0 0.0 0.0 0.0

    

