Mn1 Bi1 str #: 8
1.000
4.500557900  0.000000000  0.000000000
2.250278900  3.897597500  0.000000000
-0.000000200  0.000000200  22.048140600
Po Mn Bi
3   3   6   
direct
-0.000000004   0.000000019   0.125000006
0.333333329   0.333333353   0.291666672
0.666666663   0.666666686   0.458333339
-0.000000004   0.000000019   0.625000006
0.333333329   0.333333353   0.791666672
0.666666663   0.666666686   0.958333339
0.000000000   0.000000000   0.000000000
0.333333333   0.333333333   0.166666667
0.666666667   0.666666667   0.333333333
0.000000000  -0.000000000   0.500000000
0.333333333   0.333333333   0.666666667
0.666666667   0.666666667   0.833333333
