Mn1 Bi1 str #: 3
1.000
4.500557900  0.000000000  0.000000000
2.250278900  3.897597500  0.000000000
-0.000000100 -2.598398200  14.698760400
Po Mn Bi
2   2   4   
direct
0.937499993   0.125000025   0.187500009
0.187499993   0.625000025   0.437500009
0.437499993   0.125000025   0.687500009
0.687499993   0.625000025   0.937500009
0.000000000   0.000000000   0.000000000
0.250000000   0.500000000   0.250000000
0.500000000   0.000000000   0.500000000
0.750000000   0.500000000   0.750000000
