pymatgen v2020.10.20 with grid density = 6908 / number of atoms
0
Gamma
17 17 5
