Fe2 str #: 5
1.000
2.828059000  0.000000000  0.000000000
0.000000000  2.828059000  0.000000000
0.000000000  0.000000000  8.484177000
Po Fe
3   3   
direct
0.000000000   0.000000000   0.000000000
0.000000000   0.000000000   0.333333333
0.500000000   0.500000000   0.166666667
0.000000000   0.000000000   0.666666667
0.500000000   0.500000000   0.500000000
0.500000000   0.500000000   0.833333333
