Fe2 str #: 17
1.000
2.828059000  0.000000000  0.000000000
0.000000000  2.828059000  2.828059000
0.000000000 -5.656118000  5.656118000
Po Fe
4   4   
direct
0.000000000   0.000000000   0.000000000
0.000000000   0.500000000   0.250000000
0.000000000   0.000000000   0.500000000
0.500000000   0.500000000   0.000000000
0.000000000   0.500000000   0.750000000
0.500000000   0.000000000   0.250000000
0.500000000   0.500000000   0.500000000
0.500000000   0.000000000   0.750000000
