Co2
1.0
        2.5007836819         0.0000000000         0.0000000000
       -1.2503918409         2.1657421979         0.0000000000
        0.0000000000         0.0000000000         4.0333309174
   Co
    2
Cartesian
     1.250391841         0.721914053         3.024998188
    -0.000000025         1.443828106         1.008332729
