pymatgen with grid density = 6894 / number of atoms
0
Gamma
16 9 10
