Co4
1.0
2.491303 0.000000 0.000000
0.000000 4.315062 0.000000
0.000000 0.000000 4.016287
Co
4
direct
0.000000 0.666667 0.750000 Co,spin=-5
0.500000 0.833333 0.250000 Co,spin=-5
0.500000 0.166667 0.750000 Co,spin=5
1.000000 0.333333 0.250000 Co,spin=5
