Eu4 O4
1.0
-1.796261 3.111279 0.000000
-1.796104 1.037188 11.733336
1.796385 3.111279 0.000000
Eu O
4 4
direct
0.500000 0.750000 0.250000 Eu,spin=-10
0.000000 0.500000 0.500000 Eu,spin=-10
0.500000 0.250000 0.750000 Eu,spin=10
0.000000 0.000000 0.000000 Eu,spin=10
0.750000 0.875000 0.625000 O
0.250000 0.625000 0.875000 O
0.750000 0.375000 0.125000 O
0.250000 0.125000 0.375000 O
