Automatic mesh
0              ! number of k-points = 0 -> automatic generation scheme 
Auto           ! fully automatic
20           ! length (R_k)