pymatgen with grid density = 6908 / number of atoms
0
Gamma
16 5 16
