Co4
1.0
2.491303 0.000000 0.000000
-1.245651 2.157531 0.000000
0.000000 0.000000 8.032574
Co
4
direct
0.666667 0.333333 0.875000 Co,spin=-5
0.333333 0.666667 0.625000 Co,spin=-5
0.666667 0.333333 0.375000 Co,spin=5
0.333333 0.666667 0.125000 Co,spin=5
