Fe4 B2                                  
   1.00000000000000     
     4.1496076114617244   -0.0008111517453253    0.0000000000224838
    -1.9989175360554283    3.6364230599394323    0.0000000000223479
    -1.0753450455609705   -1.8178059673260207    3.5718984427559834
   Fe   B 
     4     2
Direct
  0.1671002715596054  0.6671002769880524  0.8342005771953106
  0.8328997671228385  0.3328997525321561  0.1657995002206442
  0.6671002140551313  0.8328997680033022  0.5000000054738578
  0.3328997214295283  0.1671002611941847  0.5000000054738578
  0.7499999842588281  0.7499999889746789  0.0000000000000000
  0.2500000021215740  0.2500000018101289  0.0000000000000000
