Fe4 B2                                  
1.0
        4.1496076584         0.0000000000         0.0000000000
       -1.9996283132         3.6360322231         0.0000000000
       -1.0749896552        -1.8180160821         3.5718984427
   Fe    B
    4    2
Cartesian
    -1.537308931         0.909007907         2.979679585
     2.612298727         0.909008026         0.592218995
     0.565219223         2.119442225         1.785949230
     0.509769976        -0.301426113         1.785949230
     1.612484455         2.727024078         0.000000000
     0.537494838         0.909008026         0.000000000
