Eu1 O1 str #: 3
1.00
-1.79625260  1.03711670  2.93333400
3.59265410 -2.07416240  2.93333400
1.79638450  3.11127910  0.00000000
Eu O
2 2
direct
0.00000000   0.00000000   0.00000000
0.50000000   0.50000000   0.50000000
-0.00000001   0.50000004  -0.00000000
0.49999999   0.00000004   0.50000000
