Eu4 S4
1.0
0.000000 -2.386148 3.374523
4.132930 0.000000 0.000000
0.000000 9.544594 6.749047
Po Eu S
2 2 4
direct
0.000000 0.000000 0.500000 Eu,spin=-10
0.500000 0.500000 0.750000 Eu,spin=-10
0.000000 0.000000 0.000000 Eu,spin=10
0.500000 0.500000 0.250000 Eu,spin=10
1.000000 0.000000 0.750000 S
0.500000 0.500000 0.000000 S
1.000000 0.000000 0.250000 S
0.500000 0.500000 0.500000 S
