Eu2 S2                                  
   1.00000000000000     
     2.0630330957670977    3.5740045971654721    0.0005408008541314
     0.0000000000000000    2.3836888091023178    6.7705055609764644
     4.1260661915341954    0.0000000000000000    0.0000000000000000
   Eu   S 
     2     2
Direct
 -0.0000000000000000  0.5000000000000000  0.5000000000000000
 -0.0000000000000000  0.0000000000000000  0.0000000000000000
  0.5000166087372195  0.2499746779328739  0.7499916956313903
  0.4999833912627804  0.7500253220671259  0.2500083043686098
 
  0.00000000E+00  0.00000000E+00  0.00000000E+00
  0.00000000E+00  0.00000000E+00  0.00000000E+00
  0.00000000E+00  0.00000000E+00  0.00000000E+00
  0.00000000E+00  0.00000000E+00  0.00000000E+00
