pymatgen with grid density = 994 / number of atoms
0
Gamma
7 7 7
