Ni4
1.0
2.478974 0.000000 0.000000
-0.000000 2.862472 2.024073
0.000000 -2.862472 4.048147
Ni
4
direct
0.000000 0.000000 0.500000 Ni,spin=-5
0.500000 0.500000 0.750000 Ni,spin=-5
0.000000 0.000000 0.000000 Ni,spin=5
0.500000 0.500000 0.250000 Ni,spin=5
