Fe4 B2
1.0
4.1602640152         0.0000000000         0.0000000000
-2.0033381200         3.6461531856         0.0000000000
-1.0784629555        -1.8230766061         3.5806572048
Fe    B
4    2
Cartesian
-1.540900588         0.911538243         2.980170488
2.619363546         0.911538303         0.600486994
0.561635435         2.128812075         1.790328622
0.516827166        -0.305735409         1.790328622
1.617694378         2.734614849         0.000000000
0.539231479         0.911538303         0.000000000
