Eu1 O1 str #: 2
1.00
0.00000850 -2.07416240  2.93333400
3.59264560  0.00000000  0.00000000
0.00013190  4.14839580  2.93333400
Po Eu O
1   1   2   
direct
0.00000000   0.00000000   0.00000000
0.50000000   0.50000000   0.50000000
0.00000004   0.00000004   0.50000000
0.50000004   0.50000004  -0.00000000
