Eu1 O1 str #: 2
1.000
0.000008500 -2.074162400  2.933334000
3.592645600  0.000000000  0.000000000
0.000131900  4.148395800  2.933334000
Po Eu O
1   1   2   
direct
0.000000000   0.000000000   0.000000000
0.500000000   0.500000000   0.500000000
0.000000039   0.000000042   0.499999995
0.500000039   0.500000042  -0.000000005
