Eu1 O1 str #: 10
1.000
3.592645600  0.000000000  0.000000000
0.000123400  6.222558200  0.000000000
-1.796244100 -1.037045700  5.866668000
Po Eu O
2   2   4   
direct
0.000000000   0.000000000   0.000000000
0.750000000   0.250000000   0.500000000
0.500000000   0.500000000   0.000000000
0.250000000   0.750000000   0.500000000
0.125000050   0.374999987   0.250000017
0.875000050   0.624999987   0.750000017
0.625000050   0.874999987   0.250000017
0.375000050   0.124999987   0.750000017
