Eu1 O1 str #: 1
1.00
1.79626110 -3.11127910  0.00000000
1.79638450  3.11127910  0.00000000
-1.79624410 -1.03704570  5.86666800
Po Eu O
1   1   2   
direct
0.00000000   0.00000000   0.00000000
0.50000000   0.00000000   0.50000000
0.75000006   0.50000004   0.25000002
0.25000006   0.50000004   0.75000002
