Eu1 O1 str #: 4
1.000
-1.796252600  1.037116700  2.933334000
0.000008500 -2.074162400  2.933334000
3.592777500  4.148395800  2.933334000
Po Eu O
1   1   2   
direct
0.000000000   0.000000000   0.000000000
0.000000000   0.500000000   0.500000000
0.499999954   0.250000062   0.750000019
0.499999954   0.750000062   0.250000019
