Eu1 O1 str #: 3
1.000
-1.796252600  1.037116700  2.933334000
3.592654100 -2.074162400  2.933334000
1.796384500  3.111279100  0.000000000
Po Eu O
1   1   2   
direct
0.000000000   0.000000000   0.000000000
0.500000000   0.500000000   0.500000000
-0.000000006   0.500000040  -0.000000003
0.499999994   0.000000040   0.499999997
