Eu1 O1 str #: 7
1.00
0.00000850 -2.07416240  2.93333400
3.59251370 -4.14839580 -2.93333400
1.79638450  3.11127910  0.00000000
Po Eu O
1   1   2   
direct
0.00000000   0.00000000   0.00000000
0.50000000   0.50000000  -0.00000000
0.75000006   0.25000002   0.50000004
0.25000006   0.75000002   0.50000004
