Eu1 O1 str #: 18
1.000
1.796261100 -3.111279100  0.000000000
5.389030100  3.111279100  0.000000000
0.000140400  2.074233400  5.866668000
Po Eu O
2   2   4   
direct
0.000000000   0.000000000   0.000000000
0.250000000   0.250000000   0.500000000
0.500000000   0.500000000   0.000000000
0.750000000   0.750000000   0.500000000
0.125000054   0.625000010   0.250000017
0.375000054   0.875000010   0.750000017
0.625000054   0.125000010   0.250000017
0.875000054   0.375000010   0.750000017
