Eu4 O4
1.0
3.592646 0.000000 0.000000
0.000123 6.222558 0.000000
-1.796244 -1.037046 5.866668
Po Eu O
2 2 4
direct
0.250000 0.750000 0.500000 Eu,spin=-10
0.500000 0.500000 0.000000 Eu,spin=-10
0.000000 0.000000 0.000000 Eu,spin=10
0.750000 0.250000 0.500000 Eu,spin=10
0.375000 0.125000 0.750000 O
0.125000 0.375000 0.250000 O
0.875000 0.625000 0.750000 O
0.625000 0.875000 0.250000 O
