Eu1 O1 str #: 4
1.00
-1.79625260  1.03711670  2.93333400
0.00000850 -2.07416240  2.93333400
3.59277750  4.14839580  2.93333400
Po Eu O
1   1   2   
direct
0.00000000   0.00000000   0.00000000
0.00000000   0.50000000   0.50000000
0.49999995   0.25000006   0.75000002
0.49999995   0.75000006   0.25000002
