Eu1 O1 str #: 9
1.000
3.592645600  0.000000000  0.000000000
0.000131900  4.148395800  2.933334000
0.000017000 -4.148324800  5.866668000
Po Eu O
2   2   4   
direct
0.000000000   0.000000000   0.000000000
0.500000000   0.500000000   0.250000000
-0.000000000   0.000000000   0.500000000
0.500000000   0.500000000   0.750000000
0.000000042   0.499999995   0.000000019
0.500000042  -0.000000005   0.250000019
0.000000042   0.499999995   0.500000019
0.500000042  -0.000000005   0.750000019
