Eu1 O1 str #: 8
1.00
1.79626110 -3.11127910  0.00000000
1.79638450  3.11127910  0.00000000
-1.79610370  1.03718770  11.73333600
Po Eu O
2   2   4   
direct
0.00000000   0.00000000   0.00000000
0.50000000   0.75000000   0.25000000
0.00000000   0.50000000   0.50000000
0.50000000   0.25000000   0.75000000
0.75000006   0.37500003   0.12500001
0.25000006   0.12500003   0.37500001
0.75000006   0.87500003   0.62500001
0.25000006   0.62500003   0.87500001
