Eu1 O1 str #: 6
1.00
-1.79626110  3.11127910  0.00000000
1.79639300  1.03711670  2.93333400
3.59263710  2.07416240 -2.93333400
Po Eu O
1   1   2   
direct
0.00000000   0.00000000   0.00000000
0.50000000   0.50000000   0.50000000
-0.00000004   0.00000004   0.50000000
0.49999996   0.50000004   0.00000000
