Co2
1.0
2.500784 0.000000 0.000000
-1.250392 2.165742 0.000000
0.000000 0.000000 4.033331
Co
2
direct
0.666667 0.333333 0.750000 Co,spin=5
0.333333 0.666667 0.250000 Co,spin=5
