Co2                                     
   1.00000000000000     
     2.4913025824585717    0.0000000000000000    0.0000000000000000
    -1.2456512912292859    2.1575308569294958   -0.0000000000000000
     0.0000000000000000    0.0000000000000000    4.0162871401462201
   Co
     2
Direct
  0.6666669999999968  0.3333330000000032  0.7500000000000000
  0.3333330000000032  0.6666669999999968  0.2500000000000000
