KPOINTS File, automatically generated by KPPRA - aflow with Kpoints=6750  [KPPRA=6000]
0
Monkhorst-Pack
15 15 15
0 0 0
