AFM  NiO
    4.03500000 
  2.0000000000   1.0000000000   1.0000000000 
  1.0000000000   2.0000000000   1.0000000000 
  1.0000000000   1.0000000000   2.0000000000
  Ni O
   16   16 
Direct
  0.0000000000   0.0000000000   0.0000000000 
  0.2500000000   0.2500000000   0.2500000000 
  0.0000000000   0.0000000000   0.5000000000 
  0.2500000000   0.2500000000   0.7500000000 
  0.0000000000   0.5000000000   0.0000000000 
  0.2500000000   0.7500000000   0.2500000000 
  0.0000000000   0.5000000000   0.5000000000 
  0.2500000000   0.7500000000   0.7500000000 
  0.5000000000   0.0000000000   0.0000000000 
  0.7500000000   0.2500000000   0.2500000000 
  0.5000000000   0.0000000000   0.5000000000 
  0.7500000000   0.2500000000   0.7500000000 
  0.5000000000   0.5000000000   0.0000000000 
  0.7500000000   0.7500000000   0.2500000000 
  0.5000000000   0.5000000000   0.5000000000 
  0.7500000000   0.7500000000   0.7500000000 
  0.1250000000   0.1250000000   0.1250000000 
  0.3750000000   0.3750000000   0.3750000000 
  0.1250000000   0.1250000000   0.6250000000 
  0.3750000000   0.3750000000   0.8750000000 
  0.1250000000   0.6250000000   0.1250000000 
  0.3750000000   0.8750000000   0.3750000000 
  0.1250000000   0.6250000000   0.6250000000 
  0.3750000000   0.8750000000   0.8750000000 
  0.6250000000   0.1250000000   0.1250000000 
  0.8750000000   0.3750000000   0.3750000000 
  0.6250000000   0.1250000000   0.6250000000 
  0.8750000000   0.3750000000   0.8750000000 
  0.6250000000   0.6250000000   0.1250000000 
  0.8750000000   0.8750000000   0.3750000000 
  0.6250000000   0.6250000000   0.6250000000 
  0.8750000000   0.8750000000   0.8750000000
