Eu4 O4                                  
   1.00000000000000     
    -0.0000083921552877   -2.0673857056017537    2.9237782082365955
     7.2174748794024088   -0.0000560767595676   -0.0000789232659221
     0.0000682267542162    4.1433954282185201    2.9298254889078885
   Eu   O 
     4     4
Direct
 -0.0000036631138481  0.5017805961995786  0.0000049606119629
  0.5000036631138480  0.7482194038004214  0.4999950393880371
  0.0000045857974049  0.0018195321959110 -0.0000058849176915
  0.4999954142025951  0.2481804678040891  0.5000058849176916
 -0.0000006156723090  0.5001180479929899  0.5000007493274529
  0.5000006156723087  0.7498819520070101 -0.0000007493274526
 -0.0000004649565428  0.0000829778079681  0.4999988555598052
  0.5000004649565427  0.2499170221920319  0.0000011444401947
 
  0.00000000E+00  0.00000000E+00  0.00000000E+00
  0.00000000E+00  0.00000000E+00  0.00000000E+00
  0.00000000E+00  0.00000000E+00  0.00000000E+00
  0.00000000E+00  0.00000000E+00  0.00000000E+00
  0.00000000E+00  0.00000000E+00  0.00000000E+00
  0.00000000E+00  0.00000000E+00  0.00000000E+00
  0.00000000E+00  0.00000000E+00  0.00000000E+00
  0.00000000E+00  0.00000000E+00  0.00000000E+00
