Ni1
1.0
        2.4789736271         0.0000000000         0.0000000000
        1.2394868135         2.1468541364         0.0000000000
        1.2394868135         0.7156180455         2.0240734907
   Ni
    1
Cartesian
     0.000000000         0.000000000         0.000000000
