Fe4 B2 str #: 7
1.00
-1.07490000 -1.81800000  3.57180000
4.14960000  0.00000000  0.00000000
-0.92450000  5.45400000  3.57180000
Fe B
4 2
direct
0.50065093   0.83353021   0.33355031
0.00065093   0.33353021   0.83355031
0.99934907   0.66642159   0.16644969
0.08355336   0.25063052   0.41644664
0.49934907   0.16642159   0.66644969
0.58355336   0.75063052   0.91644664
0.41644664   0.24932128   0.08355336
0.91644664   0.74932128   0.58355336
0.62500000   0.37497590   0.37500000
0.12500000   0.87497590   0.87500000
0.87500000   0.12497590   0.12500000
0.37500000   0.62497590   0.62500000
