pymatgen v2019.10.16 with grid density = 6813 / atom
0
Gamma
17 17 5
