Mn1 Bi1 str #: 12
1.000
2.250279000 -3.897597500  0.000000000
9.001115700  2.598398400  7.349380200
-2.250279000 -1.299199100  7.349380200
Mn Bi
6 6
direct
0.624999984   0.750000009   0.625000008
0.458333317   0.083333342   0.791666675
0.291666651   0.416666676   0.958333342
0.124999984   0.750000009   0.125000008
0.958333317   0.083333342   0.291666675
0.791666651   0.416666676   0.458333342
0.000000000   0.000000000   0.000000000
0.833333333   0.333333333   0.166666667
0.666666667   0.666666667   0.333333333
0.500000000   0.000000000   0.500000000
0.333333333   0.333333333   0.666666667
0.166666667   0.666666667   0.833333333
