Eu4 S4
1.0
4.132930 0.000000 0.000000
0.000000 4.772297 3.374523
0.000000 -4.772297 6.749047
Eu S
4 4
direct
0.000000 0.000000 0.500000 Eu,spin=-10
0.500000 0.500000 0.750000 Eu,spin=-10
0.000000 0.000000 0.000000 Eu,spin=10
0.500000 0.500000 0.250000 Eu,spin=10
0.000000 0.500000 0.500000 S
0.500000 0.000000 0.750000 S
0.000000 0.500000 1.000000 S
0.500000 0.000000 0.250000 S
