pymatgen with grid density = 6908 / number of atoms
0
Gamma
18 18 10
