Ni4
1.0
-1.752899 -1.752899 0.000000
0.000000 1.752899 -1.752899
5.258697 -3.505798 -5.258697
Ni
4
direct
0.250000 0.750000 0.750000 Ni,spin=-5
0.500000 0.500000 0.500000 Ni,spin=-5
0.000000 0.000000 0.000000 Ni,spin=5
0.750000 0.250000 0.250000 Ni,spin=5
