Eu4 O4
1.0
-1.796261 3.111279 0.000000
-1.796244 -1.037046 5.866668
3.592778 4.148396 2.933334
Eu O
4 4
direct
0.500000 0.500000 1.000000 Eu,spin=-10
0.250000 0.750000 0.500000 Eu,spin=-10
0.750000 0.250000 0.500000 Eu,spin=10
0.000000 0.000000 0.000000 Eu,spin=10
0.125000 0.375000 0.750000 O
0.875000 0.625000 0.250000 O
0.375000 0.125000 0.250000 O
0.625000 0.875000 0.750000 O
