Eu4 O4                                  
   1.00000000000000     
    -1.7942548851729532    3.1078151519293256    0.0002165709430639
    -1.7947960315180957    1.0364470511861714   11.7598305523401514
     1.7943469129409664    3.1077967732358518   -0.0000003905157104
   Eu   O 
     4     4
Direct
  0.5002388070208454  0.7496421017685841  0.2498810223208676
 -0.0002388070208453  0.5003578982314159  0.5001189776791325
  0.5002306027704704  0.2496485836533109  0.7498858183348726
 -0.0002306027704704  0.0003514163466891  0.0001141816651273
  0.7500010769107901  0.8749982021273294  0.6249994692144646
  0.2500000000000000  0.6250000000000000  0.8750000000000000
  0.7499989230892099  0.3750017978726707  0.1250005307855354
  0.2500000000000000  0.1250000000000000  0.3750000000000000
 
  0.00000000E+00  0.00000000E+00  0.00000000E+00
  0.00000000E+00  0.00000000E+00  0.00000000E+00
  0.00000000E+00  0.00000000E+00  0.00000000E+00
  0.00000000E+00  0.00000000E+00  0.00000000E+00
  0.00000000E+00  0.00000000E+00  0.00000000E+00
  0.00000000E+00  0.00000000E+00  0.00000000E+00
  0.00000000E+00  0.00000000E+00  0.00000000E+00
  0.00000000E+00  0.00000000E+00  0.00000000E+00
