Gd2
1.0
3.613934 0.000000 0.000000
-1.806967 3.129758 0.000000
0.000000 0.000000 5.770074
Gd
2
direct
0.666667 0.333333 0.750000 Gd,spin=7.94
0.333333 0.666667 0.250000 Gd,spin=7.94
