Eu4 S4                                  
   1.00000000000000     
     4.1265476688643048    0.0000000000000000    0.0000000000000000
     0.0000000000000000    7.1705718620596759    0.0016079498616378
    -2.0632738344321524   -1.1935730273885634    6.7477861401783423
   Eu   S 
     4     4
Direct
  0.2499928003119645  0.7497102160419846  0.4999856006239219
  0.5000071996880358  0.5002897839580154  0.0000143993760782
  0.0000057825937706  0.0002831683769206  0.0000115651875412
  0.7499942174062294  0.2497168316230794  0.4999884348124587
  0.3750000000000000  0.1250000000000000  0.7500000000000000
  0.1250015199314677  0.3749952423288007  0.2500030398629354
  0.8750000000000000  0.6250000000000000  0.7500000000000000
  0.6249984800685321  0.8750047576711993  0.2499969601370646
 
  0.00000000E+00  0.00000000E+00  0.00000000E+00
  0.00000000E+00  0.00000000E+00  0.00000000E+00
  0.00000000E+00  0.00000000E+00  0.00000000E+00
  0.00000000E+00  0.00000000E+00  0.00000000E+00
  0.00000000E+00  0.00000000E+00  0.00000000E+00
  0.00000000E+00  0.00000000E+00  0.00000000E+00
  0.00000000E+00  0.00000000E+00  0.00000000E+00
  0.00000000E+00  0.00000000E+00  0.00000000E+00
