Eu4 S4                                  
   1.00000000000000     
     2.0642451204376808    3.5753162137077412    0.0000293193396795
     2.0642451204376808    1.1918822615776592   13.5273849346031483
     4.1284902408753616   -0.0000000000000000    0.0000000000000000
   Eu   S 
     4     4
Direct
  0.4998655846241565  0.5004035649695433  0.4998654252031500
  0.7501344153758434  0.7495964350304567  0.7501345747968501
 -0.0001328334812111  0.0003988361684085 -0.0001330013435987
  0.2501328334812111  0.2496011638315915  0.2501330013435987
  0.6250000000000000  0.1250000000000000  0.6250000000000000
  0.8750015347628651  0.3749967683991823  0.8750008484189762
  0.1250000000000000  0.6250000000000000  0.1250000000000000
  0.3749984652371345  0.8750032316008177  0.3749991515810238
 
  0.00000000E+00  0.00000000E+00  0.00000000E+00
  0.00000000E+00  0.00000000E+00  0.00000000E+00
  0.00000000E+00  0.00000000E+00  0.00000000E+00
  0.00000000E+00  0.00000000E+00  0.00000000E+00
  0.00000000E+00  0.00000000E+00  0.00000000E+00
  0.00000000E+00  0.00000000E+00  0.00000000E+00
  0.00000000E+00  0.00000000E+00  0.00000000E+00
  0.00000000E+00  0.00000000E+00  0.00000000E+00
