pymatgen v2019.10.16 with grid density = 8860 / atom
0
Gamma
14 10 7
