Mn4 B4                                  
   1.00000000000000     
     2.8818068721251091    0.0000000000000000    0.0000000000000000
     0.0000000000000000    4.1356186814151155   -0.0000064368899659
     0.0000000000000000   -0.0000223038682844    5.6380021244442373
   Mn   B 
     4     4
Direct
  0.7500000000000000  0.8823331189312056  0.8199005327802882
  0.2500000000000000  0.1176668810687943  0.1800994672197118
  0.2500000000000000  0.3823358084124598  0.6800882357234632
  0.7500000000000000  0.6176641915875398  0.3199117642765367
  0.2500000000000000  0.8992661711895433  0.5300501547186887
  0.7500000000000000  0.1007338288104566  0.4699498452813111
  0.7500000000000000  0.3992711838456562  0.9699531828194546
  0.2500000000000000  0.6007288161543438  0.0300468171805453
 
  0.00000000E+00  0.00000000E+00  0.00000000E+00
  0.00000000E+00  0.00000000E+00  0.00000000E+00
  0.00000000E+00  0.00000000E+00  0.00000000E+00
  0.00000000E+00  0.00000000E+00  0.00000000E+00
  0.00000000E+00  0.00000000E+00  0.00000000E+00
  0.00000000E+00  0.00000000E+00  0.00000000E+00
  0.00000000E+00  0.00000000E+00  0.00000000E+00
  0.00000000E+00  0.00000000E+00  0.00000000E+00
