Fe12 O18
1.0
5.035100 0.000000 0.000000
-2.517550 4.360524 0.000000
0.000000 0.000000 13.758100
Fe O
12 18
direct
0.000000 0.000000 0.355320 Fe
0.000000 0.000000 0.644680 Fe
0.333333 0.666667 0.021987 Fe
0.666667 0.333333 0.688653 Fe
0.333333 0.666667 0.311347 Fe
0.666667 0.333333 0.978013 Fe
0.000000 0.000000 0.144680 Fe
0.000000 0.000000 0.855320 Fe
0.333333 0.666667 0.811347 Fe
0.333333 0.666667 0.521987 Fe
0.666667 0.333333 0.478013 Fe
0.666667 0.333333 0.188653 Fe
0.306180 0.000000 0.250000 O
0.693820 0.000000 0.750000 O
0.639513 0.666667 0.916667 O
0.972847 0.333333 0.583333 O
0.027153 0.666667 0.416667 O
0.360487 0.333333 0.083333 O
0.000000 0.306180 0.250000 O
0.000000 0.693820 0.750000 O
0.333333 0.972847 0.916667 O
0.666667 0.639513 0.583333 O
0.333333 0.360487 0.416667 O
0.666667 0.027153 0.083333 O
0.693820 0.693820 0.250000 O
0.306180 0.306180 0.750000 O
0.027153 0.360487 0.916667 O
0.639513 0.972847 0.416667 O
0.360487 0.027153 0.583333 O
0.972847 0.639513 0.083333 O
