pymatgen with grid density = 2166 / number of atoms
0
Monkhorst
10 10 10
