Eu4 O4                                  
   1.00000000000000     
    -1.7928551064991436    3.1046962695281568    0.0002999892905875
    -1.7937933714620373    1.0354914039492249   11.7833958119489406
     1.7923825260414326    3.1043519872278158   -0.0000961561803806
   Eu   O 
     4     4
Direct
  0.5003622107115462  0.7494540622038011  0.2498168775542131
  0.9996377892884538  0.5005459377961989  0.5001831224457869
  0.5003302531752664  0.2494775988632829  0.7498419717360677
  0.9996697468247336  0.0005224011367171  0.0001580282639323
  0.7500062119041532  0.8749915966156447  0.6249939830255180
  0.2500000000000000  0.6250000000000000  0.8750000000000000
  0.7499937880958468  0.3750084033843551  0.1250060169744820
  0.2500000000000000  0.1250000000000000  0.3750000000000000
 
  0.00000000E+00  0.00000000E+00  0.00000000E+00
  0.00000000E+00  0.00000000E+00  0.00000000E+00
  0.00000000E+00  0.00000000E+00  0.00000000E+00
  0.00000000E+00  0.00000000E+00  0.00000000E+00
  0.00000000E+00  0.00000000E+00  0.00000000E+00
  0.00000000E+00  0.00000000E+00  0.00000000E+00
  0.00000000E+00  0.00000000E+00  0.00000000E+00
  0.00000000E+00  0.00000000E+00  0.00000000E+00
