Co4
1.0
2.500784 0.000000 0.000000
1.250392 -2.165742 4.033331
-0.000000 -4.331484 0.000000
Co
4
direct
0.625000 0.750000 0.958333 Co,spin=-5
0.375000 0.250000 0.041667 Co,spin=-5
0.125000 0.750000 0.458333 Co,spin=5
0.875000 0.250000 0.541667 Co,spin=5
