Eu2 S2
1.0
2.066465 3.579223 0.000000
0.000000 2.386148 6.749047
4.132930 0.000000 0.000000
Po Eu S
1 1 2
direct
0.000000 0.500000 0.500000 Eu,spin=-10
0.000000 0.000000 0.000000 Eu,spin=10
0.500000 0.250000 0.750000 S
0.500000 0.750000 0.250000 S
