pymatgen v2019.10.16 with grid density = 6908 / atom
0
Gamma
18 18 10
