Ni-Fcc str #: 4
1.00
2.47670010  0.00000000  0.00000000
-0.00000010  2.85984693  2.02221710
0.00000000 -2.85984694  4.04443420
Fe Ni
2 2
direct
0.00000000   0.00000000   0.00000000
0.50000000   0.50000000   0.25000000
0.00000000   0.00000000   0.50000000
0.50000000   0.50000000   0.75000000
