Ni-Fcc str #: 1
1.00
2.47670010  0.00000000  0.00000000
1.23835000  2.14488520  0.00000000
1.23835000 -0.71496174  4.04443420
Fe Ni
1 1
direct
0.00000000   0.00000000   0.00000000
0.00000000   0.50000000   0.50000000
