Ni-Fcc str #: 3
1.00
2.47670010  0.00000000  0.00000000
1.23835000  2.14488520  0.00000000
1.23834990  0.71496172  8.08886840
Fe Ni
2 2
direct
0.00000000   0.00000000   0.00000000
0.25000000   0.25000000   0.25000000
0.50000000   0.50000000   0.50000000
0.75000000   0.75000000   0.75000000
