Ni-Fcc str #: 6
1.00
2.47670010  0.00000000  0.00000000
-0.00000020  5.71969386  4.04443420
0.00000000 -1.42992347  2.02221710
Fe Ni
2 2
direct
0.00000000   0.00000000   0.00000000
0.50000000   0.25000000   0.50000000
0.00000000   0.50000000  -0.00000000
0.50000000   0.75000000   0.50000000
