Eu1 S1                                  
   1.00000000000000     
     4.1329300000000000    0.0000000000000000    0.0000000000000000
     2.0664650000000000    3.5792229999999998    0.0000000000000000
     2.0664650000000000    1.1930740000000000    3.3745229999999999
   Eu   S 
     1     1
Direct
  0.0000000000000000  0.0000000000000000  0.0000000000000000
  0.5000000000000000  0.5000000000000000  0.5000000000000000
 
  0.00000000E+00  0.00000000E+00  0.00000000E+00
  0.00000000E+00  0.00000000E+00  0.00000000E+00
