Ni4
1.0
2.478974 0.000000 0.000000
-1.239487 2.146854 0.000000
-0.000000 -1.431236 8.096294
Po Ni
2 2 0
direct
0.250000 0.500000 0.750000 Ni,spin=-5
0.500000 0.000000 0.500000 Ni,spin=-5
0.000000 0.000000 0.000000 Ni,spin=5
0.750000 0.500000 0.250000 Ni,spin=5
