Co4
1.0
2.500784 0.000000 0.000000
1.250392 2.165742 0.000000
0.000000 0.000000 8.066662
Po Co
2 2 0
direct
0.333333 0.333333 0.875000 Co,spin=-5
0.666667 0.666667 0.625000 Co,spin=-5
0.333333 0.333333 0.375000 Co,spin=5
0.666667 0.666667 0.125000 Co,spin=5
