pymatgen v2019.10.16 with grid density = 4539 / atom
0
Gamma
13 13 13
