ALGO = Normal
EDIFF = 1e-06
ENCUT = 500
IBRION = 2
ISIF = 2
ISMEAR = 1
ISPIN = 2
LAECHG = False
LASPH = True
LCHARG = False
LORBIT = 11
LREAL = Auto
LVHAR = False
LWAVE = False
MAGMOM = 2*-10.0 2*10.0 4*0.6
NCORE = 4
NELM = 100
NSW = 0
PREC = Accurate
SIGMA = 0.1
SYSTEM = Euo
