pymatgen with grid density = 15131 / number of atoms
0
Gamma
17 12 8
