Eu4 O4                                  
   1.00000000000000     
     0.0000056234425299   -2.0692191217139775    2.9263419086794520
     7.2092221956488549   -0.0000878040805199   -0.0000667567168829
     0.0000548713265447    4.1445044451744009    2.9305804616436104
   Eu   O 
     4     4
Direct
 -0.0000020618365486  0.5016450612876604  0.0000009314568571
  0.5000020618365484  0.7483549387123396  0.4999990685431430
  0.0000026667105363  0.0016622138734030 -0.0000001885790900
  0.4999973332894637  0.2483377861265970  0.5000001885790901
 -0.0000007236802032  0.5000190055134641  0.5000010504257696
  0.5000007236802035  0.7499809944865358 -0.0000010504257697
 -0.0000000705648289 -0.0000501881421177  0.4999973315386975
  0.5000000705648291  0.2500501881421176  0.0000026684613026
 
  0.00000000E+00  0.00000000E+00  0.00000000E+00
  0.00000000E+00  0.00000000E+00  0.00000000E+00
  0.00000000E+00  0.00000000E+00  0.00000000E+00
  0.00000000E+00  0.00000000E+00  0.00000000E+00
  0.00000000E+00  0.00000000E+00  0.00000000E+00
  0.00000000E+00  0.00000000E+00  0.00000000E+00
  0.00000000E+00  0.00000000E+00  0.00000000E+00
  0.00000000E+00  0.00000000E+00  0.00000000E+00
