Ni-Fcc str #: 5
1.00
2.47670010  0.00000000  0.00000000
-0.00000010  4.28977040  0.00000000
1.23835000 -0.71496174  4.04443420
Ni
1
direct
0.00000000   0.00000000   0.00000000
0.25000000   0.25000000   0.50000000
0.50000000   0.50000000   0.00000000
0.75000000   0.75000000   0.50000000
