Eu2 S2
1.0
0.000000 -2.386148 3.374523
4.132930 0.000000 0.000000
0.000000 4.772297 3.374523
Eu S
2 2
direct
0.500000 0.500000 0.500000 Eu,spin=-10
0.000000 0.000000 0.000000 Eu,spin=10
1.000000 0.000000 0.500000 S
0.500000 0.500000 0.000000 S
