pymatgen with grid density = 2280 / number of atoms
0
Gamma
12 6 7
