Eu2 O2
1.0
0.000008 -2.074162 2.933334
3.592646 0.000000 0.000000
0.000132 4.148396 2.933334
Eu O
2 2
direct
0.500000 0.500000 0.500000 Eu,spin=-10
0.000000 0.000000 0.000000 Eu,spin=10
0.000000 0.000000 0.500000 O
0.500000 0.500000 1.000000 O
