EA582   7.052  4.072  8.913 101.69 68.14 106.60 Sym.group:    2
1.0
    6.845863     0.192509    -1.681704
   -1.012226     3.761260     1.186726
    5.153736    -2.699288     6.752441
  Bi  Fe
   6   2
Direct
    0.112302     0.312064     0.958306 
    0.620871     0.579293     0.995943 
    0.300856     0.748258     0.614111 
    0.809168     0.015525     0.652134 
    0.673833     0.331994     0.389761 
    0.248831     0.995957     0.220544 
    0.410215     0.927335     0.891109 
    0.511031     0.400127     0.719182 
