Co4
1.0
2.491303 0.000000 0.000000
1.245651 -2.157531 4.016287
0.000000 -4.315062 0.000000
Po Co
2 2 0
direct
0.625000 0.750000 0.958333 Co,spin=-5
0.375000 0.250000 0.041667 Co,spin=-5
0.125000 0.750000 0.458333 Co,spin=5
0.875000 0.250000 0.541667 Co,spin=5
