Ni1                                     
1.0
        2.4767000675         0.0000000000         0.0000000000
        1.2383500338         2.1448851760         0.0000000000
        1.2383500338         0.7149617253         2.0222171371
   Ni
    1
Cartesian
     0.000000000         0.000000000         0.000000000
