pymatgen v2019.10.16 with grid density = 1513 / atom
0
Monkhorst
8 8 2
