Eu4 O4                                  
   1.00000000000000     
    -0.0000279949364571   -2.0712443088837800    2.9291723145169688
     3.5874991012792314   -0.0000395565560763   -0.0000720418877825
     0.0000537085509587    8.3204999599713219    5.8833608097029337
   Eu   O 
     4     4
Direct
  0.0000017358559918  0.0000048112543848  0.5005933685316285
  0.4999982641440082  0.4999951887456151  0.7494066314683715
 -0.0000034193457811  0.0000026822701570  0.0005868142292525
  0.5000034193457811  0.4999973177298431  0.2494131857707476
  0.0000002034092357  0.0000007405834149  0.7503776018891956
  0.4999976239625983  0.5000000059934818  0.9996190719197402
  0.0000023760374016 -0.0000000059934818  0.2503809280802598
  0.4999997965907642  0.4999992594165850  0.4996223981108044
 
  0.00000000E+00  0.00000000E+00  0.00000000E+00
  0.00000000E+00  0.00000000E+00  0.00000000E+00
  0.00000000E+00  0.00000000E+00  0.00000000E+00
  0.00000000E+00  0.00000000E+00  0.00000000E+00
  0.00000000E+00  0.00000000E+00  0.00000000E+00
  0.00000000E+00  0.00000000E+00  0.00000000E+00
  0.00000000E+00  0.00000000E+00  0.00000000E+00
  0.00000000E+00  0.00000000E+00  0.00000000E+00
