Eu4 O4                                  
   1.00000000000000     
    -0.0000274781202758   -2.0708203489533763    2.9285722026074525
     3.5867484312459399   -0.0000016303127672   -0.0000445883638842
     0.0001869903227532    8.3239465663085461    5.8857971067872237
   Eu   O 
     4     4
Direct
  0.0000002855393101 -0.0000013653781010  0.5004494563130318
  0.4999997144606899  0.5000013653781010  0.7495505436869682
  0.0000006132372900  0.0000001710531136  0.0004436256494152
  0.4999993867627099  0.4999998289468863  0.2495563743505849
 -0.0000009462048592 -0.0000005903880554  0.7501024490100693
  0.4999996851570161  0.5000001978342996 -0.0001045251082187
  0.0000003148429837 -0.0000001978342996  0.2501045251082187
  0.5000009462048594  0.5000005903880556  0.4998975509899309
 
  0.00000000E+00  0.00000000E+00  0.00000000E+00
  0.00000000E+00  0.00000000E+00  0.00000000E+00
  0.00000000E+00  0.00000000E+00  0.00000000E+00
  0.00000000E+00  0.00000000E+00  0.00000000E+00
  0.00000000E+00  0.00000000E+00  0.00000000E+00
  0.00000000E+00  0.00000000E+00  0.00000000E+00
  0.00000000E+00  0.00000000E+00  0.00000000E+00
  0.00000000E+00  0.00000000E+00  0.00000000E+00
