Ni1 str #: 6
1.000
2.476700100  0.000000000  0.000000000
-0.000000200  5.719693860  4.044434200
0.000000000 -1.429923470  2.022217100
Po Ni
2   2   
direct
0.000000000   0.000000000   0.000000000
0.500000000   0.250000000   0.500000000
0.000000000   0.500000000  -0.000000000
0.500000000   0.750000000   0.500000000
