Ni1 str #: 7
1.000
-2.476700100 -1.429923470  2.022217100
1.238350000 -0.714961740  4.044434200
-0.000000100  2.859846930  2.022217100
Po Ni
2   2   
direct
0.000000000   0.000000000   0.000000000
0.750000000   0.500000000   0.250000000
0.500000000   0.000000000   0.500000000
0.250000000   0.500000000   0.750000000
