Fe4                                     
   1.00000000000000     
     1.6091418834133193    1.2668763950569339    1.2668763950569339
     1.6091418834133193   -1.2668763950569339   -1.2668763950569339
     0.0000000000000000    5.6184988539831693   -5.6184988539831693
   Fe
     4
Direct
  0.0000000000000000 -0.0000000000000000  0.5020495418892961
  0.5000000000000000  0.5000000000000000  0.7479504581107039
 -0.0000000000000000  0.0000000000000000  0.0020495418892962
  0.5000000000000000  0.5000000000000000  0.2479504581107038
 
  0.00000000E+00  0.00000000E+00  0.00000000E+00
  0.00000000E+00  0.00000000E+00  0.00000000E+00
  0.00000000E+00  0.00000000E+00  0.00000000E+00
  0.00000000E+00  0.00000000E+00  0.00000000E+00
