Mn1 Bi1 str #: 7
1.00
-0.00000010  5.19679670  3.67469010
-4.50055790 -2.59839830  3.67469010
2.25027890 -1.29919910  7.34938020
Mn Bi
4 4
direct
0.37500002   0.87500000   0.75000001
0.62500002   0.62500000   0.25000001
0.87500002   0.37500000   0.75000001
0.12500002   0.12500000   0.25000001
0.00000000   0.00000000   0.00000000
0.25000000   0.75000000   0.50000000
0.50000000   0.50000000   0.00000000
0.75000000   0.25000000   0.50000000
