pymatgen with grid density = 1795 / number of atoms
0
Gamma
11 5 6
