Eu4
1.0
3.822912 0.000000 0.000000
1.911456 -3.378716 6.419474
0.000000 -6.757432 0.000000
Eu
4
direct
0.375000 0.250000 0.224570 Eu,spin=-10
0.625000 0.750000 0.775430 Eu,spin=-10
0.875000 0.250000 0.724570 Eu,spin=10
0.125000 0.750000 0.275430 Eu,spin=10
