ALGO = Normal
EDIFF = 1e-07
ENCUT = 780
IBRION = -1
ISIF = 3
ISMEAR = -5
ISPIN = 2
LAECHG = False
LASPH = False
LCHARG = False
LORBIT = 11
LREAL = Auto
LVHAR = False
LWAVE = False
MAGMOM = 12*5.0 18*0.6
NCORE = 4
NELM = 100
NSW = 0
PREC = Accurate
SIGMA = 0.05
