pymatgen with grid density = 4539 / number of atoms
0
Gamma
12 3 12
