pymatgen v2020.10.20 with grid density = 6908 / number of atoms
0
Gamma
16 11 16
