Eu1 O1 str #: 1
1.000
1.796261100 -3.111279100  0.000000000
1.796384500  3.111279100  0.000000000
-1.796244100 -1.037045700  5.866668000
Eu O
2 2
direct
0.000000000   0.000000000   0.000000000
0.500000000   0.000000000   0.500000000
0.750000064   0.500000037   0.250000017
0.250000064   0.500000037   0.750000017
