Mn1 Bi1 str #: 12
1.00
2.25027900 -3.89759750  0.00000000
9.00111570  2.59839840  7.34938020
-2.25027900 -1.29919910  7.34938020
Po Mn Bi
3   3   6   
direct
0.62499998   0.75000001   0.62500001
0.45833332   0.08333334   0.79166667
0.29166665   0.41666668   0.95833334
0.12499998   0.75000001   0.12500001
0.95833332   0.08333334   0.29166667
0.79166665   0.41666668   0.45833334
0.00000000   0.00000000   0.00000000
0.83333333   0.33333333   0.16666667
0.66666667   0.66666667   0.33333333
0.50000000   0.00000000   0.50000000
0.33333333   0.33333333   0.66666667
0.16666667   0.66666667   0.83333333
