Mn1 Bi1 str #: 5
1.00
4.50055790  0.00000000  0.00000000
-0.00000010  5.19679670  3.67469010
0.00000000 -5.19679660  7.34938020
Po Mn Bi
2   2   4   
direct
0.50000001   0.75000002   0.00000001
0.00000001   0.25000002   0.25000001
0.50000001   0.75000002   0.50000001
0.00000001   0.25000002   0.75000001
0.00000000   0.00000000   0.00000000
0.50000000   0.50000000   0.25000000
0.00000000   0.00000000   0.50000000
0.50000000   0.50000000   0.75000000
