Eu1 S1
1.0
4.132930 0.000000 0.000000
2.066465 3.579223 0.000000
2.066465 1.193074 3.374523
Eu S
1 1
direct
0.000000 0.000000 0.000000 Eu,spin=10
0.500000 0.500000 0.500000 S,spin=0
