Ni16 O16
1.0
8.070000 4.035000 4.035000
4.035000 8.070000 4.035000
4.035000 4.035000 8.070000
Ni O
16 16
direct
0.000000 0.000000 0.000000 Ni
0.250000 0.250000 0.250000 Ni
0.000000 0.000000 0.500000 Ni
0.250000 0.250000 0.750000 Ni
0.000000 0.500000 0.000000 Ni
0.250000 0.750000 0.250000 Ni
0.000000 0.500000 0.500000 Ni
0.250000 0.750000 0.750000 Ni
0.500000 0.000000 0.000000 Ni
0.750000 0.250000 0.250000 Ni
0.500000 0.000000 0.500000 Ni
0.750000 0.250000 0.750000 Ni
0.500000 0.500000 0.000000 Ni
0.750000 0.750000 0.250000 Ni
0.500000 0.500000 0.500000 Ni
0.750000 0.750000 0.750000 Ni
0.125000 0.125000 0.125000 O
0.375000 0.375000 0.375000 O
0.125000 0.125000 0.625000 O
0.375000 0.375000 0.875000 O
0.125000 0.625000 0.125000 O
0.375000 0.875000 0.375000 O
0.125000 0.625000 0.625000 O
0.375000 0.875000 0.875000 O
0.625000 0.125000 0.125000 O
0.875000 0.375000 0.375000 O
0.625000 0.125000 0.625000 O
0.875000 0.375000 0.875000 O
0.625000 0.625000 0.125000 O
0.875000 0.875000 0.375000 O
0.625000 0.625000 0.625000 O
0.875000 0.875000 0.875000 O
