Eu1 O1 str #: 6
1.000
-1.796261100  3.111279100  0.000000000
1.796393000  1.037116700  2.933334000
3.592637100  2.074162400 -2.933334000
Eu O
2 2
direct
0.000000000   0.000000000   0.000000000
0.500000000   0.500000000   0.500000000
-0.000000045   0.000000036   0.500000001
0.499999955   0.500000036   0.000000001
