Ni1
1.0
-1.752899 -1.752899 0.000000
-1.752899 0.000000 -1.752899
0.000000 -1.752899 -1.752899
Ni
1
direct
0.000000 0.000000 0.000000 Ni,spin=5
