ALGO = Fast
EDIFF = 0.0001
EDIFFG = -0.01
ENCUT = 520
IBRION = 2
ICHARG = 2
ISIF = 4
ISMEAR = 0
ISPIN = 2
LASPH = True
LCHARG = False
LMAXMIX = 4
LORBIT = 11
LREAL = Auto
LWAVE = False
MAGMOM = 2*-6.687 2*6.687 4*0.0
NCORE = 4
NELM = 100
NSIM = 4
NSW = 99
POTIM = 0.3
PREC = Accurate
SIGMA = 0.01
SYMPREC = 1e-08
