pymatgen with grid density = 15131 / number of atoms
0
Gamma
13 10 13
