pymatgen v2019.10.16 with grid density = 1513 / atom
0
Gamma
6 5 6
