Eu4 O4                                  
   1.00000000000000     
    -3.5930919757196125   -2.0742115006934232    2.9335450000598295
     1.7957853227416927   -5.1849307113187688    2.9331211052817583
     0.0002516456749354    4.1482564946372227    2.9335228675169720
   Eu   O 
     4     4
Direct
  0.5000083520545149  0.0000021240861684  0.5000056187193701
  0.2499916479454853  0.4999978759138315  0.2499943812806301
  0.7499916479454851  0.4999978759138315  0.7499943812806299
  0.0000083520545148  0.0000021240861684  0.0000056187193699
  0.0000021690254075 -0.0000023460806046  0.4999979232543948
  0.7499978309745923  0.5000023460806045  0.2500020767456052
  0.5000021690254077 -0.0000023460806046 -0.0000020767456052
  0.2499978309745925  0.5000023460806045  0.7500020767456054
 
  0.00000000E+00  0.00000000E+00  0.00000000E+00
  0.00000000E+00  0.00000000E+00  0.00000000E+00
  0.00000000E+00  0.00000000E+00  0.00000000E+00
  0.00000000E+00  0.00000000E+00  0.00000000E+00
  0.00000000E+00  0.00000000E+00  0.00000000E+00
  0.00000000E+00  0.00000000E+00  0.00000000E+00
  0.00000000E+00  0.00000000E+00  0.00000000E+00
  0.00000000E+00  0.00000000E+00  0.00000000E+00
