Fe2
1.0
1.420026 1.420026 1.420026
1.420026 -1.420026 -1.420026
0.000000 2.840052 -2.840052
Po Fe
1 1 0
direct
0.500000 0.500000 0.500000 Fe,spin=-5
0.000000 0.000000 0.000000 Fe,spin=5
