Co str #: 10
1.00
  2.49218270  0.00000000  0.00000000
  1.24609130  2.15829360  4.02142000
  0.00000010 -4.31658720  4.02142000
  Co Fe
  3 3
D
  0.80555504   0.38888897   0.86111103
  0.47222171   0.05555563   0.19444437
  0.52777838   0.94444434   0.80555569
  0.13888838   0.72222230   0.52777770
  0.19444505   0.61111100   0.13888902
  0.86111171   0.27777767   0.47222236
