SYSTEM=BiMn
LSCALU  =    .FALSE.            # neglect scalapack
IBRION  =    2                  # relax with Conjugate Gradient

    ISYM      =    0
    LWAVE     =    .FALSE.             # WAVECAR=OFF
    LCHARG    =    .TRUE.             # CHGCAR=ON
    PREC      =    Accurate             # avoid wrap around errors
    ENMAX     =    450
    LREAL     =    .FALSE.             # reciprocal space projection technique
    EDIFF     =    1E-6                # high accuracy required
    LORBIT    =    11

Smearing:
    ISMEAR    =    1
    SIGMA     =    0.1

Magnetism:
    ISPIN     =    2
    MAGMOM  =   3.9 3.9 -3.9 -3.9 0.0 0.0 0.0 0.0