Eu4 S4
1.0
4.132930 0.000000 0.000000
0.000000 7.158445 0.000000
-2.066465 -1.193074 6.749047
Eu S
4 4
direct
0.250000 0.750000 0.500000 Eu,spin=-10
0.500000 0.500000 0.000000 Eu,spin=-10
0.000000 0.000000 0.000000 Eu,spin=10
0.750000 0.250000 0.500000 Eu,spin=10
0.375000 0.125000 0.750000 S
0.125000 0.375000 0.250000 S
0.875000 0.625000 0.750000 S
0.625000 0.875000 0.250000 S
