pymatgen with grid density = 6894 / number of atoms
0
Gamma
17 17 10
