Co2
1.0
2.491303 0.000000 0.000000
-1.245651 2.157531 0.000000
0.000000 0.000000 4.016287
Co
2
direct
0.333333 0.666667 0.250000 Co,spin=-5
0.666667 0.333333 0.750000 Co,spin=5
