Co str #: 3
1.00
  2.49218270  0.00000000  0.00000000
 -1.24609130 -2.15829360  4.02142000
  0.00000010 -4.31658720  0.00000000
  Co Fe
  2 2
D
  0.12499953   0.25000000   0.54166655
  0.87500056   0.75000002   0.45833351
  0.62499953   0.25000000   0.04166655
  0.37500056   0.75000002   0.95833351
