Eu O FM init
1.0
3.5926456451    0.0000000000    0.0000000000
1.7963845289    3.1112790599    0.0000000000
1.7963930084    1.0371167313    2.9333340005
Eu O
1 1
Carthesian
0.000000000     0.000000000     0.00000000
3.592711687     2.074197769     1.46666705
