Co2 str #: 7
1.000
-1.245908300  2.157976400  0.000000000
0.000000000  0.000000000  4.015597800
3.737725700  2.157976400  0.000000000
Po Co
2   2   
direct
0.999999490   0.749999963   0.333333493
0.500000481   0.250000012   0.166666494
0.499999490   0.749999963   0.833333493
0.000000481   0.250000012   0.666666494
