pymatgen with grid density = 598 / number of atoms
0
Gamma
7 4 4
