Co2 str #: 2
1.000
-1.245908300  2.157976400  0.000000000
0.000000000  0.000000000  8.031195600
1.245908700  2.157976400  0.000000000
Co
4
direct
0.666665996   0.374999981   0.666666986
0.333333987   0.125000006   0.333332989
0.666665996   0.874999981   0.666666986
0.333333987   0.625000006   0.333332989
