Mn1 Bi1 str #: 14
1.00
4.50055790  0.00000000  0.00000000
2.25027880  6.49599590  7.34938020
0.00000000 -5.19679660  7.34938020
Mn Bi
6 6
direct
0.25000000   0.50000001   0.87500000
0.58333333   0.83333335   0.04166667
0.25000000   0.50000001   0.37500000
0.91666667   0.16666668   0.20833334
0.58333333   0.83333335   0.54166667
0.91666667   0.16666668   0.70833334
0.00000000   0.00000000   0.00000000
0.33333333   0.33333333   0.16666667
0.66666667   0.66666667   0.33333333
0.00000000   0.00000000   0.50000000
0.33333333   0.33333333   0.66666667
0.66666667   0.66666667   0.83333333
