Ni1                                     
1.00000000000000     
     2.4767000043699166    0.0000000000000530    0.0000000000000374
     1.2383500021350502    2.1448851213570985   -0.0000000000000137
     1.2383500021350502    0.7149617071523227    2.0222170855146779
   Ni
     1
Direct
  0.0000000000000000  0.0000000000000000  0.0000000000000000
 
  0.00000000E+00  0.00000000E+00  0.00000000E+00
