pymatgen with grid density = 3021 / number of atoms
0
Monkhorst
4 4 4
