pymatgen with grid density = 7391 / number of atoms
0
Gamma
9 8 9
