Fe4 O6
1.0
-5.035100 0.000000 0.000000
0.000000 2.907016 -4.586033
2.517550 -4.360524 0.000000
Fe O
4 6
direct
0.355320 0.065960 0.710640 Fe,spin=-5
0.144680 0.434040 0.289360 Fe,spin=-5
0.644680 0.934040 0.289360 Fe,spin=5
0.855320 0.565960 0.710640 Fe,spin=5
0.443820 0.250000 0.500000 O
0.556180 0.750000 0.500000 O
0.750000 0.250000 0.193820 O
0.250000 0.750000 0.806180 O
0.056180 0.250000 0.806180 O
0.943820 0.750000 0.193820 O
