Ni2
1.0
2.478974 0.000000 0.000000
-0.000000 2.862472 2.024073
0.000000 -1.431236 2.024073
Po Ni
1 1 0
direct
0.500000 0.500000 0.500000 Ni,spin=-5
0.000000 0.000000 0.000000 Ni,spin=5
