Ni1 str #: 1
1.000
2.476700100  0.000000000  0.000000000
1.238350000  2.144885200  0.000000000
1.238350000 -0.714961740  4.044434200
Po Ni
1   1   
direct
0.000000000   0.000000000   0.000000000
0.000000000   0.500000000   0.500000000
