Ni1 str #: 3
1.000
2.476700100  0.000000000  0.000000000
1.238350000  2.144885200  0.000000000
1.238349900  0.714961720  8.088868400
Po Ni
2   2   
direct
0.000000000   0.000000000   0.000000000
0.250000000   0.250000000   0.250000000
0.500000000   0.500000000   0.500000000
0.750000000   0.750000000   0.750000000
