Ni1 str #: 5
1.000
2.476700100  0.000000000  0.000000000
-0.000000100  4.289770400  0.000000000
1.238350000 -0.714961740  4.044434200
Po Ni
2   2   
direct
0.000000000   0.000000000   0.000000000
0.250000000   0.250000000   0.500000000
0.500000000   0.500000000   0.000000000
0.750000000   0.750000000   0.500000000
