Ni1 str #: 4
1.000
2.476700100  0.000000000  0.000000000
-0.000000100  2.859846930  2.022217100
0.000000000 -2.859846940  4.044434200
Po Ni
2   2   
direct
0.000000000   0.000000000   0.000000000
0.500000000   0.500000000   0.250000000
0.000000000   0.000000000   0.500000000
0.500000000   0.500000000   0.750000000
