Fe4                                     
   1.00000000000000     
     1.2695370369090886    1.4530202448758724    1.4530202448758724
    -0.0000000000000000    2.8501413575691306   -2.8501413575691306
    -4.1194738710741499    1.6160722411334936    1.6160722411334936
   Fe
     4
Direct
  0.4576382109512225  0.0000000000000000  0.4866071333160235
  0.2923617890487775  0.5000000000000000  0.7633928666839761
 -0.0423617890487776  0.0000000000000000 -0.0133928666839763
  0.7923617890487775  0.5000000000000000  0.2633928666839765
 
  0.00000000E+00  0.00000000E+00  0.00000000E+00
  0.00000000E+00  0.00000000E+00  0.00000000E+00
  0.00000000E+00  0.00000000E+00  0.00000000E+00
  0.00000000E+00  0.00000000E+00  0.00000000E+00
