Eu4 O4
1.0
0.000008 -2.074162 2.933334
3.592646 0.000000 0.000000
0.000264 8.296792 5.866668
Po Eu O
2 2 4
direct
1.000000 1.000000 0.500000 Eu,spin=-10
0.500000 0.500000 0.750000 Eu,spin=-10
0.000000 0.000000 0.000000 Eu,spin=10
0.500000 0.500000 0.250000 Eu,spin=10
0.000000 0.000000 0.750000 O
0.500000 0.500000 1.000000 O
0.000000 0.000000 0.250000 O
0.500000 0.500000 0.500000 O
