Eu4 O4
1.0
-3.592637 -2.074162 2.933334
1.796270 -5.185441 2.933334
0.000132 4.148396 2.933334
Po Eu O
2 2 4
direct
0.500000 0.000000 0.500000 Eu,spin=-10
0.250000 0.500000 0.250000 Eu,spin=-10
0.750000 0.500000 0.750000 Eu,spin=10
0.000000 0.000000 0.000000 Eu,spin=10
1.000000 0.000000 0.500000 O
0.750000 0.500000 0.250000 O
0.500000 0.000000 1.000000 O
0.250000 0.500000 0.750000 O
