Co str #: 5
1.00
  2.49218270  0.00000000  0.00000000
 -0.00000010  4.31658720  0.00000000
  0.00000000  0.00000000  4.02142000
  Co Fe
  2 2
Dir
  0.99999953   0.33333345   0.25000000
  0.00000055   0.66666648   0.75000002
  0.49999953   0.83333345   0.25000000
  0.50000055   0.16666648   0.75000002
