pymatgen with grid density = 2981 / number of atoms
0
Gamma
7 7 6
