Gd4
1.0
3.613934 0.000000 0.000000
0.000000 6.259516 0.000000
0.000000 0.000000 5.770074
Po Gd
2 2 0
direct
0.000000 0.666667 0.750000 Gd,spin=-7.94
0.999999 0.333333 0.250000 Gd,spin=-7.94
0.500000 0.166666 0.750000 Gd,spin=7.94
0.499999 0.833333 0.250000 Gd,spin=7.94
