Gd4
1.0
3.613934 0.000000 0.000000
1.806967 -3.129758 5.770074
0.000000 -6.259516 0.000000
Po Gd
2 2 0
direct
0.625000 0.750000 0.958333 Gd,spin=-7.94
0.374999 0.250000 0.041667 Gd,spin=-7.94
0.125000 0.750000 0.458334 Gd,spin=7.94
0.874999 0.250000 0.541667 Gd,spin=7.94
