SYSTEM = Gd
PREC = Normal

NCORE = 4
NSW = 100

EDIFF = 0.00001
ENCUT = 700
NBANDS = 16

IBRION = 2
ISIF = 3

ISMEAR = -5
SIGMA = 0.05

LORBIT = 11
LCHARG = .FALSE.
LWAVE = .FALSE.

ISPIN = 2
MAGMOM = 5 5
