Co str #: 1
1.00
 -1.24609140  2.15829360  0.00000000
  0.00000000  0.00000000  4.02142000
  2.49218270  0.00000000  0.00000000
  Co Fe
  1 1
Dir
  0.66666690   0.25000000   0.33333297
  0.33333296   0.75000000   0.66666703
