Gd4
1.0
3.613934 0.000000 0.000000
1.806967 3.129758 0.000000
0.000000 0.000000 11.540148
Po Gd
2 2 0
direct
0.333334 0.333333 0.875000 Gd,spin=-7.94
0.666666 0.666667 0.625000 Gd,spin=-7.94
0.333334 0.333333 0.375000 Gd,spin=7.94
0.666666 0.666667 0.125000 Gd,spin=7.94
