Eu4 S4                                  
   1.00000000000000     
     4.1291084590076190    0.0000000000000000    0.0000000000000000
     0.0000000000000000    4.7674778907106257    3.3711090517801598
     0.0000000000000000   -4.7815512201810098    6.7621217896226069
   Eu   S 
     4     4
Direct
  0.0000000000000000  0.0000028033778541  0.5004920748551160
  0.5000000000000000  0.4999971966221460  0.7495079251448840
  0.0000000000000000 -0.0000031880446072  0.0004817554285558
  0.5000000000000000  0.5000031880446071  0.2495182445714441
  0.0000000000000000  0.5000007091385635  0.5001226231934207
  0.5000000000000000 -0.0000007091385635  0.7498773768065793
  0.0000000000000000  0.4999991617920674  0.0001301072784931
  0.5000000000000000  0.0000008382079325  0.2498698927215069
 
  0.00000000E+00  0.00000000E+00  0.00000000E+00
  0.00000000E+00  0.00000000E+00  0.00000000E+00
  0.00000000E+00  0.00000000E+00  0.00000000E+00
  0.00000000E+00  0.00000000E+00  0.00000000E+00
  0.00000000E+00  0.00000000E+00  0.00000000E+00
  0.00000000E+00  0.00000000E+00  0.00000000E+00
  0.00000000E+00  0.00000000E+00  0.00000000E+00
  0.00000000E+00  0.00000000E+00  0.00000000E+00
