pymatgen v2019.10.16 with grid density = 2981 / atom
0
Gamma
10 10 7
