pymatgen with grid density = 2981 / number of atoms
0
Gamma
10 6 10
