Fe2
1.0
0.000000 2.840052 0.000000
0.000000 0.000000 -2.840052
-2.840052 0.000000 0.000000
Fe
2
direct
0.500000 0.500000 0.500000 Fe,spin=-5
0.000000 0.000000 0.000000 Fe,spin=5
