Eu1 S1
1.0
        4.1329302788         0.0000000000         0.0000000000
        2.0664651394         3.5792226135         0.0000000000
        2.0664651394         1.1930742045         3.3745234418
   Eu    S
    1    1
Direct
     0.000000000         0.000000000         0.000000000
     0.499999996         0.500000014         0.499999994
