Ni4
1.0
3.505798 0.000000 0.000000
1.752899 -3.505798 -1.752899
0.000000 0.000000 -3.505798
Ni
4
direct
0.500000 0.000000 0.500000 Ni,spin=-5
0.250000 0.500000 0.750000 Ni,spin=-5
0.750000 0.500000 0.250000 Ni,spin=5
0.000000 0.000000 0.000000 Ni,spin=5
