Ni4
1.0
-1.752899 -1.752899 0.000000
-1.752899 1.752899 -3.505798
3.505798 -1.752899 -1.752899
Po Ni
2 2 0
direct
0.250000 0.750000 0.500000 Ni,spin=-5
0.500000 0.500000 0.000000 Ni,spin=-5
0.000000 0.000000 0.000000 Ni,spin=5
0.750000 0.250000 0.500000 Ni,spin=5
