Ni2
1.0
-1.752899 -1.752899 0.000000
0.000000 1.752899 -1.752899
1.752899 -3.505798 -1.752899
Po Ni
1 1 0
direct
0.500000 0.500000 0.500000 Ni,spin=-5
0.000000 0.000000 0.000000 Ni,spin=5
