Eu2 S2                                  
   1.00000000000000     
     0.0000000000000000   -2.3843683238137365    3.3720241227857053
     4.1298362031844764    0.0000000000000000    0.0000000000000000
     0.0000000000000000    4.7794113189766900    3.3795715480407882
   Eu   S 
     2     2
Direct
  0.5000000000000000  0.5000000000000000  0.5000000000000000
  0.0000000000000000  0.0000000000000000 -0.0000000000000000
 -0.0000000000000000  0.0000000000000000  0.5000000000000000
  0.5000000000000000  0.5000000000000000  0.0000000000000000
 
  0.00000000E+00  0.00000000E+00  0.00000000E+00
  0.00000000E+00  0.00000000E+00  0.00000000E+00
  0.00000000E+00  0.00000000E+00  0.00000000E+00
  0.00000000E+00  0.00000000E+00  0.00000000E+00
