Eu4 O4                                  
   1.00000000000000     
     3.5845376794670663    0.0001229941404913   -0.0002359496136753
     0.0003378132400922    6.2387776013257872    0.0015544489424070
    -1.7926120397716259   -1.0383520203898415    5.8645111755547665
   Eu   O 
     4     4
Direct
  0.2500214710371188  0.7485801925840484  0.5000130027359379
  0.4999785289628813  0.5014198074159516 -0.0000130027359379
 -0.0000262465983388  0.0014315077036041 -0.0000213340623468
  0.7500262465983388  0.2485684922963959  0.5000213340623469
  0.3750000000000000  0.1250000000000000  0.7500000000000000
  0.1250004657004863  0.3749966031882806  0.2500050377297230
  0.8750000000000000  0.6250000000000000  0.7500000000000000
  0.6249995342995137  0.8750033968117263  0.2499949622702769
 
  0.00000000E+00  0.00000000E+00  0.00000000E+00
  0.00000000E+00  0.00000000E+00  0.00000000E+00
  0.00000000E+00  0.00000000E+00  0.00000000E+00
  0.00000000E+00  0.00000000E+00  0.00000000E+00
  0.00000000E+00  0.00000000E+00  0.00000000E+00
  0.00000000E+00  0.00000000E+00  0.00000000E+00
  0.00000000E+00  0.00000000E+00  0.00000000E+00
  0.00000000E+00  0.00000000E+00  0.00000000E+00
