pymatgen with grid density = 6908 / number of atoms
0
Gamma
12 10 12
