Mn1 Bi1 str #: 4
1.00
4.50055790  0.00000000  0.00000000
-0.00000010  7.79519500  0.00000000
2.25027890 -1.29919910  7.34938020
Mn Bi
4 4
direct
0.31250000   0.56250001   0.37500002
0.56250000   0.81250001   0.87500002
0.81250000   0.06250001   0.37500002
0.06250000   0.31250001   0.87500002
0.00000000   0.00000000   0.00000000
0.25000000   0.25000000   0.50000000
0.50000000   0.50000000  -0.00000000
0.75000000   0.75000000   0.50000000
