pymatgen v2020.10.20 with grid density = 4539 / number of atoms
0
Gamma
11 8 5
