Ni1 str #: 2
1.000
2.476700100  0.000000000  0.000000000
-0.000000100  2.859846930  2.022217100
0.000000000 -1.429923470  2.022217100
Ni
2
direct
0.000000000   0.000000000   0.000000000
0.500000000   0.500000000   0.500000000
