Mn4 B4                                  
   1.00000000000000     
     2.9211878881716413    0.0000000000000000    0.0000000000000000
     0.0000000000000000    4.1964397595888299    0.0000000000000000
     0.0000000000000000    0.0000000000000000    5.4813825370254472
   Mn   B 
     4     4
Direct
  0.7500000000000000  0.6220129470317799  0.3285245782649279
  0.2500000000000000  0.1220129470317800  0.1714754217350721
  0.2500000000000000  0.3779923808936869  0.6714907807027134
  0.7500000000000000  0.8779923808936869  0.8285092192972866
  0.2500000000000000  0.8985054113388112  0.5348410842024808
  0.7500000000000000  0.1014892607357218  0.4651506167214953
  0.7500000000000000  0.3985054113388113  0.9651589157975192
  0.2500000000000000  0.6014892607357220  0.0348493832785046
 
  0.00000000E+00  0.00000000E+00  0.00000000E+00
  0.00000000E+00  0.00000000E+00  0.00000000E+00
  0.00000000E+00  0.00000000E+00  0.00000000E+00
  0.00000000E+00  0.00000000E+00  0.00000000E+00
  0.00000000E+00  0.00000000E+00  0.00000000E+00
  0.00000000E+00  0.00000000E+00  0.00000000E+00
  0.00000000E+00  0.00000000E+00  0.00000000E+00
  0.00000000E+00  0.00000000E+00  0.00000000E+00
