PREC = A
NCORE = 4
EDIFF = 1e-06
ISMEAR = 0
SIGMA = 0.2
ISPIN = 2
LORBIT = 11
LMAXMIX = 4
MAGMOM = 1.0 1.0 1.0 1.0 1.0 1.0 1.0 1.0 1.0 1.0 1.0 1.0 1.0 1.0 1.0 1.0 0 0 0 0 0 0 0 0 0 0 0 0 0 0 0 0