Co2
1.0
        2.5007832050         0.0000000000         0.0000000000
       -1.2503916025         2.1657417849         0.0000000000
        0.0000000000         0.0000000000         4.0333309174
   Co
    2
Cartesian
    -0.000001252         1.443828464         1.008332729
     1.250392795         0.721913159         3.024998188
