Ni4
1.0
-2.478974 -1.431236 2.024073
1.239487 -0.715618 4.048147
-0.000000 2.862472 2.024073
Ni
4
direct
0.500000 1.000000 0.500000 Ni,spin=-5
0.250000 0.500000 0.750000 Ni,spin=-5
0.750000 0.500000 0.250000 Ni,spin=5
0.000000 0.000000 0.000000 Ni,spin=5
