Ni4
1.0
2.478974 0.000000 0.000000
-0.000000 5.724944 4.048147
0.000000 -1.431236 2.024073
Ni
4
direct
1.000000 0.500000 0.000000 Ni,spin=-5
0.500000 0.750000 0.500000 Ni,spin=-5
0.000000 0.000000 0.000000 Ni,spin=5
0.500000 0.250000 0.500000 Ni,spin=5
