Co2                                     
1.0
        2.4918169975         0.0000000000         0.0000000000
       -1.2459082603         2.1579764085         0.0000000000
        0.0000000000         0.0000000000         4.0155978203
   Co
    2
Cartesian
     1.245909810         0.719324708         3.011698246
    -0.000001111         1.438651562         1.003899455
