Eu1 O1
1.0
3.592646 0.000000 0.000000
1.796385 3.111279 0.000000
1.796393 1.037117 2.933334
Eu O
1 1
direct
0.000000 0.000000 0.000000 Eu,spin=10
0.500000 0.500000 0.500000 O,spin=0
