Fe4 B2 str #: 6
1.00
1.07510000  1.81800000  3.57180000
-1.99960000  3.63600000  0.00000000
-5.22450000 -1.81800000  3.57180000
Fe B
4 2
direct
0.50064088   0.16645974   0.33356036
0.00064088   0.66645974   0.83356036
0.49933502   0.83356436   0.66646374
0.58353858   0.24935470   0.91646142
0.99933502   0.33356436   0.16646374
0.08353858   0.74935470   0.41646142
0.41643732   0.75066939   0.08356268
0.91643732   0.25066939   0.58356268
0.37498795   0.37501205   0.62501205
0.87498795   0.87501205   0.12501205
0.12498795   0.12501205   0.87501205
0.62498795   0.62501205   0.37501205
