pymatgen v2021.2.8.1 with grid density = 1386 / number of atoms
0
Monkhorst
8 8 8
