Ni1
1.0
2.478974 0.000000 0.000000
1.239487 2.146854 0.000000
1.239487 0.715618 2.024073
Ni
1
direct
0.000000 0.000000 0.000000 Ni,spin=5
