Mn1 Bi1 str #: 1
1.00
4.50055790  0.00000000  0.00000000
2.25027890  3.89759750  0.00000000
2.25027890 -1.29919910  7.34938020
Mn Bi
2 2
direct
0.74999998   0.12500002   0.37500002
0.74999998   0.62500002   0.87500002
0.00000000   0.00000000   0.00000000
0.00000000   0.50000000   0.50000000
