pymatgen with grid density = 2464 / number of atoms
0
Gamma
6 6 2
