Eu2
1.0
3.822912 -0.000000 -0.000000
-1.911456 3.378716 -0.000000
-0.000000 -0.000000 6.419474
Eu
2
direct
0.150430 0.300860 0.250000 Eu,spin=10
0.849570 0.699140 0.750000 Eu,spin=10
