ALGO = Normal
EDIFF = 1e-07
ENCUT = 550
IBRION = -1
ICHARG = 2
ISIF = 3
ISMEAR = -5
ISPIN = 2
LAECHG = False
LASPH = True
LCHARG = True
LDAU = True
LDAUJ = 0 0
LDAUL = 2 0
LDAUPRINT = 1
LDAUTYPE = 2
LDAUU = 5.3 0
LMAXMIX = 4
LORBIT = 11
LREAL = Auto
LVHAR = False
LVTOT = False
LWAVE = False
MAGMOM = 4*5.0 6*0.0
NCORE = 4
NELM = 120
NSW = 0
PREC = Accurate
SIGMA = 0.05
SYMPREC = 1e-08
