Fe4 O6
1.0
-2.517550 -4.360524 0.000000
-5.035100 0.000000 0.000000
-2.517550 -1.453508 -4.586033
Fe O
4 6
direct
0.355320 0.355320 0.934040 Fe,spin=5
0.644680 0.644680 0.065960 Fe,spin=5
0.144680 0.144680 0.565960 Fe,spin=5
0.855320 0.855320 0.434040 Fe,spin=5
0.250000 0.943820 0.250000 O,spin=0
0.750000 0.056180 0.750000 O,spin=0
0.943820 0.556180 0.250000 O,spin=0
0.056180 0.443820 0.750000 O,spin=0
0.556180 0.250000 0.250000 O,spin=0
0.443820 0.750000 0.750000 O,spin=0
