Fe2 str #: 9
1.000
2.828059000  0.000000000  2.828059000
-2.828059000  2.828059000  0.000000000
-2.828059000 -2.828059000  2.828059000
Fe
6
direct
0.000000000   0.000000000   0.000000000
0.666666667   0.333333333   0.333333333
0.666666667   0.333333333   0.833333333
0.333333333   0.666666667   0.666666667
0.333333333   0.666666667   0.166666667
0.000000000   0.000000000   0.500000000
