PREC = A
NCORE = 4
EDIFF = 1e-06
ISMEAR = 0
SIGMA = 0.2
ISPIN = 2
LORBIT = 11
LMAXMIX = 4
MAGMOM = 1.0 1.0 1.0 1.0 1.0 1.0 1.0 1.0 1.0 1.0 1.0 1.0 1.0 1.0 1.0 1.0 0 0 0 0 0 0 0 0 0 0 0 0 0 0 0 0
LDAU = True
LDAUTYPE = 3
LDAUL = 2 -1 -1
LDAUPRINT = 2
LDAUU = 0.2 0.00 0.00
LDAUJ = 0.2 0.00 0.00
ICHARG = 11