Computations:  
    PREC   = Accurate
    NCORE  =   4

Energy:
    EDIFF   =    1E-6
    ENCUT   =    520
    IBRION  =    2
    LASPH   =    True
    LORBIT  =    11
    LREAL   =    Auto
    LWAVE   =    False
    ISYM    =    0    # do not use symmetry
    ISTART  =    0    # do not to read the WAVECAR 

Smearing:
    ISMEAR  =   -5
    SIGMA   =    0.05

Magnetism:
    ISPIN   =    2
    MAGMOM  =    2*1.917 2*-1.917 0*2
    NUPDOWN =    0





