pymatgen v2020.8.13 with grid density = 1754 / number of atoms
0
Gamma
4 4 5
