pymatgen v2019.10.16 with grid density = 6497 / atom
0
Gamma
17 10 8
