Ni4
1.0
3.505798 0.000000 0.000000
0.000000 3.505798 0.000000
0.000000 0.000000 3.505798
Ni
4
direct
0.000000 0.000000 0.000000 Ni
0.000000 0.500000 0.500000 Ni
0.500000 0.000000 0.500000 Ni
0.500000 0.500000 0.000000 Ni
