pymatgen v2020.8.13 with grid density = 967 / number of atoms
0
Monkhorst
4 4 4
