Eu2 O2                                  
   1.00000000000000     
    -0.0000300412948280   -2.0667293176925114    2.9229006942249862
     3.5798178493401225   -0.0000427514682329   -0.0000767849789747
     0.0000194689794450    4.1781228125737693    2.9544320278290908
   Eu   O 
     2     2
Direct
  0.5000000000000000  0.5000000000000000  0.5000000000000000
  0.0000000000000000  0.0000000000000000  0.0000000000000000
 -0.0000000000000000  0.0000000000000000  0.5000000000000000
  0.5000000000000000  0.5000000000000000  0.0000000000000000
 
  0.00000000E+00  0.00000000E+00  0.00000000E+00
  0.00000000E+00  0.00000000E+00  0.00000000E+00
  0.00000000E+00  0.00000000E+00  0.00000000E+00
  0.00000000E+00  0.00000000E+00  0.00000000E+00
