Co2                                     
   1.00000000000000     
     2.4921827042273264    0.0000000000000000    0.0000000000000000
    -1.2460913521136632    2.1582935327454678   -0.0000000000000000
     0.0000000000000000    0.0000000000000000    4.0214200786066430
   Co
     2
Direct
  0.3333329729192656  0.6666669471248454  0.2499999999132214
  0.6666669659106930  0.3333329781201684  0.7499999999876010

