Co2                                     
1.0
        2.4921827316         0.0000000000         0.0000000000
       -1.2460913658         2.1582935565         0.0000000000
        0.0000000000         0.0000000000         4.0214200020
   Co
    2
Cartesian
    -0.000001216         1.438862920         1.005355000
     1.246092677         0.719430387         3.016065121
