Mn1 Bi1 str #: 13
1.00
4.50055790  0.00000000  0.00000000
2.25027890  3.89759750  0.00000000
-0.00000020  0.00000020  22.04814060
Mn Bi
6 6
direct
-0.00000000   0.00000002   0.12500001
0.33333333   0.33333335   0.29166667
-0.00000000   0.00000002   0.62500001
0.66666666   0.66666669   0.45833334
0.33333333   0.33333335   0.79166667
0.66666666   0.66666669   0.95833334
0.00000000   0.00000000   0.00000000
0.33333333   0.33333333   0.16666667
0.66666667   0.66666667   0.33333333
0.00000000  -0.00000000   0.50000000
0.33333333   0.33333333   0.66666667
0.66666667   0.66666667   0.83333333
