Co str #: 2
1.00
 -1.24609140  2.15829360  0.00000000
  0.00000000  0.00000000  8.04284000
  2.49218270  0.00000000  0.00000000
  Co Fe
  2 2
Dir
  0.66666690   0.12500000   0.33333297
  0.33333296   0.37500001   0.66666703
  0.66666690   0.62500000   0.33333297
  0.33333296   0.87500001   0.66666703
