SYSTEM = "Fe-alpha"

    LASPH  = True
    LREAL  = False
    LWAVE  = False

Calculations:
    ALGO    =    Fast
    PREC    =    Accurate
    NCORE   =    4

Relaxation:
    EDIFF   =    1E-6
    ENCUT   =    520
    IBRION  =    2
    LORBIT  =    11

Smearing:
    ISMEAR  =   -5
    SIGMA   =    0.05

Magnetism:
    ISPIN    =   2
    MAGMOM   =   2.143 2.143




