Fe2                                     
1.0
        2.8280589581         0.0000000000         0.0000000000
        0.0000000000         2.8280589581         0.0000000000
        0.0000000000         0.0000000000         2.8280589581
   Fe
    2
Cartesian
     0.000000000         0.000000000         0.000000000
     1.414029479         1.414029479         1.414029479
