Fe4                                     
   1.00000000000000     
     0.0000000000000000    2.7435924652535406    0.0000000000000000
    -4.4169887987677621    1.3717962326267703   -1.6765547998655757
    -2.7404339989021849   -0.0000000000000000    2.7404339989021849
   Fe
     4
Direct
  0.4996572224381094  0.0006855551237811  0.4996572224381094
  0.7503427775618905  0.4993144448762188  0.2503427775618906
  0.2503427775618906  0.4993144448762188  0.7503427775618905
 -0.0003427775618906  0.0006855551237811 -0.0003427775618906
 
  0.00000000E+00  0.00000000E+00  0.00000000E+00
  0.00000000E+00  0.00000000E+00  0.00000000E+00
  0.00000000E+00  0.00000000E+00  0.00000000E+00
  0.00000000E+00  0.00000000E+00  0.00000000E+00
