Eu2 O2
1.0
-1.796261 3.111279 0.000000
-1.796244 -1.037046 5.866668
1.796385 3.111279 0.000000
Eu O
2 2
direct
0.500000 0.500000 1.000000 Eu,spin=-10
0.000000 0.000000 0.000000 Eu,spin=10
0.750000 0.750000 0.500000 O
0.250000 0.250000 0.500000 O
