Mn4 B4
1.0
        2.9834189415         0.0000000000         0.0000000000
        0.0000000000         4.1234970093         0.0000000000
        0.0000000000         0.0000000000         5.4619870186
   Mn    B
    4    4
Direct
     0.250000000         0.377000989         0.674749012
     0.749999960         0.622999040         0.325251010
     0.749999960         0.877000960         0.825250988
     0.250000000         0.122998997         0.174749001
     0.250000000         0.885146977         0.533297010
     0.749999960         0.114853001         0.466702990
     0.749999960         0.385147006         0.966703033
     0.250000000         0.614853023         0.033296999
