Eu4 O4
1.0
0.000008 -2.074162 2.933334
7.185291 0.000000 0.000000
0.000132 4.148396 2.933334
Po Eu O
2 2 4
direct
0.000000 0.500000 0.000000 Eu,spin=-10
0.500000 0.750000 0.500000 Eu,spin=-10
0.000000 0.000000 0.000000 Eu,spin=10
0.500000 0.250000 0.500000 Eu,spin=10
0.000000 0.500000 0.500000 O
0.500000 0.750000 1.000000 O
0.000000 0.000000 0.500000 O
0.500000 0.250000 1.000000 O
