Mn4 B4
1.0
2.983419 0.000000 0.000000
0.000000 4.123497 0.000000
0.000000 0.000000 5.461987
Po Mn B
2 2 4
direct
0.750000 0.622999 0.325251 Mn,spin=-5
0.750000 0.877001 0.825251 Mn,spin=-5
0.250000 0.377001 0.674749 Mn,spin=5
0.250000 0.122999 0.174749 Mn,spin=5
0.250000 0.885147 0.533297 B
0.750000 0.114853 0.466703 B
0.750000 0.385147 0.966703 B
0.250000 0.614853 0.033297 B
