pymatgen with grid density = 2298 / number of atoms
0
Gamma
12 12 7
