Eu4 S4
1.0
0.000000 4.772297 3.374523
-4.132930 -2.386148 3.374523
2.066465 -1.193074 6.749047
Eu S
4 4
direct
0.500000 0.500000 0.000000 Eu,spin=-10
0.750000 0.250000 0.500000 Eu,spin=-10
0.250000 0.750000 0.500000 Eu,spin=10
0.000000 0.000000 0.000000 Eu,spin=10
0.500000 1.000000 1.000000 S
0.750000 0.750000 0.500000 S
0.000000 0.500000 1.000000 S
0.250000 0.250000 0.500000 S
