222supercell
 1.0000000000000000
     8.3399999999999999    4.1699999999999999    4.1699999999999999
     4.1699999999999999    8.3399999999999999    4.1699999999999999
     4.1699999999999999    4.1699999999999999    8.3399999999999999
Ni Co Ni Co O
4 4 4 4 16
Direct
  0.0000000000000000  0.0000000000000000  0.0000000000000000
  0.7500000000000000  0.2500000000000001  0.2500000000000000
  0.5000000000000000  0.0000000000000000  0.0000000000000000
  0.2499999999999999  0.7500000000000001  0.7500000000000001
  0.0000000000000000  0.5000000000000000  0.5000000000000000
  0.5000000000000000  0.5000000000000000  0.0000000000000000
  0.7500000000000001  0.7500000000000002  0.2499999999999998
  0.7500000000000000  0.2499999999999999  0.7500000000000002
  0.2500000000000000  0.7500000000000001  0.2500000000000000
  0.2500000000000000  0.2500000000000000  0.7500000000000001
  0.0000000000000000  0.0000000000000000  0.5000000000000000
  0.5000000000000000  0.5000000000000001  0.4999999999999999
  0.7500000000000000  0.7500000000000001  0.7500000000000001
  0.2500000000000000  0.2500000000000001  0.2500000000000000
  0.0000000000000000  0.5000000000000000  0.0000000000000000
  0.5000000000000000  0.0000000000000000  0.5000000000000000
  0.6250000000000001  0.6250000000000001  0.1249999999999999
  0.8750000000000000  0.8750000000000000  0.3750000000000002
  0.8750000000000000  0.3750000000000002  0.8750000000000000
  0.6250000000000000  0.1250000000000000  0.6250000000000000
  0.3750000000000002  0.8750000000000000  0.8750000000000000
  0.6250000000000000  0.1250000000000000  0.1250000000000000
  0.6250000000000001  0.6250000000000001  0.6250000000000000
  0.1249999999999999  0.6250000000000001  0.6250000000000000
  0.3749999999999998  0.8750000000000003  0.3749999999999999
  0.1250000000000000  0.6250000000000000  0.1250000000000000
  0.3749999999999999  0.3750000000000000  0.8750000000000001
  0.1250000000000000  0.1250000000000000  0.6250000000000000
  0.3750000000000000  0.3750000000000001  0.3750000000000001
  0.1250000000000000  0.1250000000000000  0.1250000000000000
  0.8750000000000001  0.3749999999999999  0.3750000000000001
  0.8750000000000000  0.8750000000000000  0.8750000000000001
