NiO
 4.17
 1.0 0.5 0.5
 0.5 1.0 0.5
 0.5 0.5 1.0
 2 2
Cartesian
 0.0 0.0 0.0
 1.0 1.0 1.0
 0.5 0.5 0.5
 1.5 1.5 1.5
