Fe4
1.0
1.420026 1.420026 1.420026
0.000000 2.840052 -2.840052
-4.260078 1.420026 1.420026
Fe
4
direct
0.500000 0.000000 0.500000 Fe,spin=-5
0.250000 0.500000 0.750000 Fe,spin=-5
0.000000 0.000000 0.000000 Fe,spin=5
0.750000 0.500000 0.250000 Fe,spin=5
