Fe4 B2 str #: 9
1.00
-1.99960000  3.63600000  0.00000000
0.00020000  0.00000000  7.14360000
4.14960000  0.00000000  0.00000000
Fe B
4 2
direct
0.25000000   0.41710062   0.74997990
0.75000000   0.91710062   0.24997990
0.25000000   0.08289938   0.74997191
0.08289329   0.75000000   0.91707717
0.75000000   0.58289938   0.24997191
0.58289329   0.25000000   0.41707717
0.91710671   0.25000000   0.08287463
0.41710671   0.75000000   0.58287463
0.75000000   0.00000000   0.74997590
0.25000000   0.50000000   0.24997590
0.25000000   0.00000000   0.24997590
0.75000000   0.50000000   0.74997590
