pymatgen with grid density = 2303 / number of atoms
0
Monkhorst
8 8 8
