Fe2 str #: 2
1.000
2.828059000  0.000000000  0.000000000
0.000000000  2.828059000  0.000000000
0.000000000  0.000000000  5.656118000
Fe
4
direct
0.000000000   0.000000000   0.000000000
0.500000000   0.500000000   0.250000000
0.000000000   0.000000000   0.500000000
0.500000000   0.500000000   0.750000000
