Fe2                                     
   1.00000000000000     
     1.6494661079874322    1.2584165682624568    1.2584165682624568
     1.6494661079874322   -1.2584165682624568   -1.2584165682624568
     0.0000000000000000    2.7589959326705085   -2.7589959326705085
   Fe
     2
Direct
  0.5000000000000000  0.5000000000000000  0.5000000000000000
 -0.0000000000000000 -0.0000000000000000  0.0000000000000000
 
  0.00000000E+00  0.00000000E+00  0.00000000E+00
  0.00000000E+00  0.00000000E+00  0.00000000E+00
