Fe2 str #: 3
1.000
2.828059000  0.000000000  0.000000000
0.000000000  2.828059000  2.828059000
0.000000000 -2.828059000  2.828059000
Fe
4
direct
0.000000000   0.000000000   0.000000000
0.500000000   0.500000000   0.000000000
0.000000000   0.500000000   0.500000000
0.500000000   0.000000000   0.500000000
