Eu4
1.0
3.822912 0.000000 0.000000
0.000000 6.757432 0.000000
0.000000 0.000000 6.419474
Eu
4
direct
0.000000 0.150430 0.250000 Eu
0.500000 0.349570 0.750000 Eu
0.500000 0.650430 0.250000 Eu
0.000000 0.849570 0.750000 Eu
