ALGO = Normal
EDIFF = 1e-06
ENCUT = 520
IBRION = -1
ICHARG = 2
ISIF = 3
ISMEAR = -5
ISPIN = 2
LAECHG = False
LASPH = True
LCHARG = False
LMAXMIX = 4
LORBIT = 11
LREAL = Auto
LVHAR = False
LVTOT = False
LWAVE = False
MAGMOM = 1*-6.695 1*6.695 2*0.3
NCORE = 4
NELM = 120
NSIM = 4
NSW = 0
PREC = Accurate
SIGMA = 0.05
SYMPREC = 1e-08
