Mn1 Bi1 str #: 2
1.000
4.500557900  0.000000000  0.000000000
-0.000000100  5.196796700  3.674690100
0.000000000 -2.598398300  3.674690100
Mn Bi
2 2
direct
0.500000006   0.750000021   0.000000013
0.000000006   0.250000021   0.500000013
0.000000000   0.000000000   0.000000000
0.500000000   0.500000000   0.500000000
