Fe4                                     
   1.00000000000000     
     0.0000000000000000    2.9084774995498344    0.0000000000000000
     0.0000000000000000    0.0000000000000000   -2.9084774995498344
    -5.4159850197366906   -0.0000000000000000    0.0000000000000000
   Fe
     4
Direct
  0.0000000000000000 -0.0000000000000000  0.5068281012232746
  0.5000000000000000  0.5000000000000000  0.7431718987767254
  0.0000000000000000 -0.0000000000000000  0.0068281012232746
  0.5000000000000000  0.5000000000000000  0.2431718987767254
 
  0.00000000E+00  0.00000000E+00  0.00000000E+00
  0.00000000E+00  0.00000000E+00  0.00000000E+00
  0.00000000E+00  0.00000000E+00  0.00000000E+00
  0.00000000E+00  0.00000000E+00  0.00000000E+00
