Fe1
1.0
1.420026 1.420026 1.420026
1.420026 -1.420026 -1.420026
-1.420026 1.420026 -1.420026
Fe
1
direct
0.000000 0.000000 0.000000 Fe,spin=5
